 # Version information for this restart file 
 # current date 2024-11-21 18:51:40.870
 # current working dir /scratch/work/courses/CHEM-GA-2671-2024fa/students/wx2237/comp-lab-class-2024/Week12-IntroAIMD/Runs/Water
 # Program compiled at                              Sat Dec 12 18:27:15 EST 2020
 # Program compiled on                                         cs001.nyu.cluster
 # Program compiled for                                                nyu-intel
 # Source code revision number                                       git:8c64c6e
 &GLOBAL
   PRINT_LEVEL  LOW
   PROJECT_NAME water_aimd_1ps_every0.5fs
   RUN_TYPE  MD
   WALLTIME 21600
 &END GLOBAL
 &MOTION
   &GEO_OPT
     OPTIMIZER  BFGS
     MAX_ITER  100
     MAX_DR     3.0000000000000001E-03
     &BFGS
     &END BFGS
   &END GEO_OPT
   &MD
     ENSEMBLE  NVT
     STEPS  2000
     TIMESTEP     4.9999999999999994E-01
     STEP_START_VAL  1998
     TIME_START_VAL     9.9899999999998238E+02
     ECONS_START_VAL    -1.1023558357480233E+03
     TEMPERATURE     3.0000000000000000E+02
     &THERMOSTAT
       TYPE  GLE
       REGION  MASSIVE
       &GLE
         NDIM  5
         A_SCALE     1.0000000000000000E+00
         A_LIST     1.8595758612559999E+02    2.7263853498399998E-01    1.1526100454610001E+01   -3.6414578262600003E+01 \
             2.3173375816020001E+02
         A_LIST    -2.7809524712060002E-01    8.5951591808710006E-05    7.2189048017650004E-01   -1.9844539343859999E-01 \
             4.2409257583420001E-01
         A_LIST    -1.4825808131210000E+01   -7.2189048017650004E-01    1.3590902121280000E+00    5.1498896280349999E+00 \
            -9.9949268450990001E+00
         A_LIST    -1.0372189126880000E+01    1.9844539343859999E-01   -5.1498896280349999E+00    2.6661910891169999E+01 \
             1.1507715495310000E+01
         A_LIST     2.1801346360420001E+02   -4.2409257583420001E-01    9.9949268450990001E+00   -1.1507715495310000E+01 \
             3.0958394565589998E+02
         &THERMOSTAT_ENERGY
              -1.9654548549240375E-03
              -1.8876315811125262E-03
              -5.8594606869369413E-04
               7.4279393882112051E-03
              -1.2465624288334295E-02
               1.6466002616196236E-03
              -7.1383009424156696E-04
              -6.0462140439997772E-03
               1.7808626238937225E-02
               3.0442167893761176E-03
               1.2775573292480994E-02
               7.4513163100972679E-04
              -7.6063040468962017E-03
              -6.2221590160210427E-03
               2.0666963864346703E-04
              -8.0669051293166278E-03
               1.8121252196171642E-02
              -2.6944635663656070E-03
               7.2509467034721697E-03
              -6.1566005886685669E-03
              -3.0369484185790562E-03
               4.5309641490195642E-03
              -1.0818642509825697E-02
              -4.3000406967629128E-03
               3.2469332042570423E-03
               3.9226150929385232E-03
               3.4483375445564304E-03
               1.2168093944328520E-03
               1.1473515458328067E-02
               2.2695525436025924E-03
               2.5407635895529062E-03
              -3.8893841049113661E-03
               3.0699259094214555E-03
               2.5148532907807572E-03
              -1.3900885845341706E-02
               1.5139144964101812E-02
               2.9292623169032473E-03
              -3.5432955734848318E-03
               1.5098382641660353E-03
               6.6089844677419008E-03
              -5.5144693923148925E-03
              -8.7622639574334738E-03
               9.0913584684465809E-03
               4.5202301305542637E-03
              -1.7776324251739500E-03
               3.2699033140934156E-03
              -9.0383526510403017E-04
               7.0550056771557278E-03
               5.9359604192385992E-03
               1.5781135438278609E-03
              -3.7365032100830885E-03
               2.8963607072019252E-03
              -8.0534659206510893E-03
              -7.0911258834795209E-04
              -5.9293123533667585E-03
               3.9011890665031444E-03
              -3.9364330676264839E-03
              -4.6317555693009228E-03
              -6.4032493057653321E-04
               1.9324106890783850E-02
               2.2477373531920143E-03
              -8.8358296038260949E-03
               1.7261066738737015E-02
              -4.6605151879096206E-03
               4.7661615961614211E-03
               2.3457809525776040E-03
              -9.5112068086468556E-03
               5.3936066764765636E-03
               2.0376902223460357E-02
               1.5702685199647797E-03
              -2.0983677053869202E-03
              -1.4116469844410626E-02
              -1.7554410552387538E-03
               2.4782131999179979E-03
              -3.1208691315969358E-04
              -9.7229232865427024E-03
               2.4446977208935471E-03
               3.9559745951506312E-03
               7.0554039140977229E-03
              -9.1437802511561417E-03
               2.0488620927509835E-02
              -4.2274204259614596E-03
               2.8199995290592835E-03
               1.2257477584469920E-03
              -1.6660411910323894E-03
               9.4788298413526484E-03
               3.1939844201476701E-03
              -7.5760080378615841E-03
               3.2647798621873430E-03
               5.0651443606250545E-04
               3.8006321283439431E-03
              -9.3712074495766878E-03
               1.3030136573541165E-03
              -7.8667756534059295E-03
              -7.7337176850651793E-03
               3.9241613211414448E-03
               1.0346488379488176E-02
               6.6446069673921132E-04
               5.0892612000419894E-03
              -7.0036558872329699E-04
              -1.3459526524899855E-03
              -9.9798361488199188E-03
               4.1940997196528561E-03
              -3.3876248144837579E-03
              -1.0151485758279242E-03
               1.4369077855348642E-02
               8.3450598683045961E-04
              -4.4563052572921067E-03
               2.4608113874875917E-03
              -6.0391087144820140E-03
               2.8688974771026027E-03
               6.3859301671312426E-03
              -3.2699434910691502E-03
              -6.7506231624967130E-03
               8.8797308281828666E-03
               6.0310203516278577E-03
              -1.5590582258176581E-02
               6.0779843669024249E-03
               4.2912148016960860E-03
               7.6572113809132607E-03
               8.7947494530596273E-03
              -4.4125401088395055E-03
              -1.6678021958922845E-03
               5.6130132448890101E-03
              -9.4041399592832767E-03
              -2.1531717952729106E-03
               3.4749128124823506E-03
               8.1290934596899391E-04
              -3.2999555403861137E-03
               5.1437265763828836E-03
              -4.1154816324071516E-03
               5.3727217035208705E-03
              -1.2064152859963068E-02
               6.5129724887863930E-03
               7.9211970132279062E-04
              -3.4680596013769455E-04
              -4.5111222372456513E-03
              -5.8899579592887477E-03
               2.5877998447303156E-03
              -2.5904773773771515E-03
               2.9486295626758312E-03
              -2.8205466774299630E-03
               1.6111277346434607E-02
              -4.9364880570362639E-03
              -6.8445166245662643E-03
              -8.4400536034393990E-04
               6.0139645117628518E-03
               1.0552495184787646E-02
               3.1140733483592366E-03
              -5.0663118507947771E-03
              -1.6912243225262982E-02
               7.5235566974891010E-03
              -4.0393825214516657E-04
              -6.0342524062240973E-03
               1.0064789469117697E-02
              -1.7877754042508456E-03
              -1.3110992332369825E-03
               5.4309465468551262E-03
              -1.9182707255003323E-03
               1.5074591942003939E-03
              -1.0563330454423425E-02
              -8.7575590659566237E-03
              -9.7317157422805909E-04
               1.5339216581218909E-04
               8.1370318232258966E-03
               1.1521151721747350E-02
               2.7871467406221061E-03
              -2.0612014170802582E-02
              -6.5588121764012259E-03
               1.3380852683327522E-02
              -4.2603859513583456E-03
              -3.4472668708068512E-03
               1.8760627440656231E-03
              -5.5868926867846565E-03
              -3.9826681681172319E-03
               1.5461029024944450E-03
              -7.8912663138473310E-03
               2.2887256578390473E-03
               4.1524877318855988E-03
               8.2066611842491338E-03
              -3.2663241502515388E-03
               5.7052211162377517E-04
               6.9602144156303654E-03
              -1.9523797553424961E-02
               1.1404705401429361E-02
               1.4314910413603913E-03
              -4.2699826540160760E-03
              -1.1116638154843250E-03
              -1.9037458844197463E-03
              -4.2836153905792247E-04
               4.0278644605025848E-03
              -1.5013680080396382E-04
              -1.2206769305190310E-02
               8.6464614779154479E-03
               9.6371240006027786E-03
              -8.1228775586289093E-03
              -7.5825645979635849E-03
               7.6859004792759937E-04
              -4.5324709901707859E-03
              -4.6553153279605504E-03
              -1.7388346563095569E-03
              -2.1161010678313252E-03
               1.7029640593363499E-02
              -4.3295369081993275E-03
              -7.2227110089107425E-03
              -7.0565866289183589E-04
              -3.8387155324681645E-03
              -9.8874672054368980E-04
              -1.6842271087603791E-03
              -1.9428971732015452E-04
               1.3274206649591665E-02
              -7.8468356354250979E-03
               1.0768562248276799E-02
              -5.9940318258511257E-03
               5.7278547292581609E-03
              -2.4076999165829035E-03
              -1.5067003108305051E-02
               9.8649616601171018E-03
               3.1421693912805585E-03
              -1.7327340934331199E-02
              -4.1391414232622437E-03
               6.9716507320886217E-04
              -8.9734209870477046E-04
               1.7382210070840412E-02
              -2.7008028029910851E-03
               1.5156098704184736E-03
               2.6081973823637358E-03
               5.8776521127578384E-04
               4.9346240770562384E-03
              -3.5134558124718671E-03
              -1.2285301572829180E-02
              -1.7622153937517371E-03
               1.4200060862127309E-02
              -4.9768439036225786E-03
               4.4112235769372084E-04
               3.5648370075073571E-03
               2.0106090342316899E-04
              -2.7823143329153994E-03
               1.2054355416909041E-02
               7.3540290542213720E-03
              -5.3591491809753967E-03
              -8.1727429651042207E-03
              -5.4285811602658223E-04
              -3.5059002739175641E-03
               3.3236812114249134E-03
               3.5026384218607462E-03
               5.7078198983931553E-03
              -3.8993187664154074E-03
               7.4594590525432444E-04
               2.8176689228492850E-03
               7.0210881834363208E-03
              -1.2140854300815421E-02
              -7.7789803506186500E-03
              -7.1027583693636116E-03
               6.2135894574030662E-03
              -8.4749441402996251E-04
               7.6987037638241119E-03
              -3.9568138426114797E-03
               1.6050724852326507E-02
              -2.1514933461769300E-02
               2.1779456722638507E-02
               1.8834874653678802E-03
               1.8287094454806638E-03
               1.4472624768677601E-04
               4.6649723788632818E-03
              -6.8563375060986601E-03
              -3.5356079624449086E-04
              -5.7225341772118889E-03
               7.3983677826361405E-04
               7.5990011872436270E-03
              -1.9947101433175894E-03
              -4.7464163991616784E-03
              -1.1480996990362352E-03
               1.1324723991890783E-02
               3.8339351780080290E-03
               2.1238270891655196E-03
              -2.8271947752907853E-02
               2.4057385191248157E-02
              -6.4901124039165184E-03
               7.2044582048595724E-03
              -7.4855308906398065E-03
               1.2929124958490144E-03
               8.0203122969280307E-03
              -6.1882172996705247E-03
              -4.0016078299658460E-03
               4.8129623226217423E-03
              -4.3479468423220200E-04
              -1.0589013434250836E-02
              -2.1691184349559023E-03
              -6.9784377999524121E-04
              -2.9706334948206123E-03
               1.4840045449108285E-02
              -1.9478273315629261E-03
              -6.7626313884756274E-03
               1.8773979908174906E-03
               1.1277660069083933E-02
              -1.3134828675118088E-02
              -9.6197626027901288E-04
              -4.7615931359243167E-03
               4.0825230965695108E-04
              -1.0978389519111210E-02
               3.5434171806649831E-03
               7.9330167904009038E-03
               1.0258407541669787E-03
               8.7154090501007832E-03
              -1.1096339103820888E-02
              -2.5616436095194338E-03
              -1.4096423076553405E-03
              -2.2716672779091018E-03
               1.5648961878188889E-02
              -6.8297624741449434E-03
              -6.4605399712388406E-03
              -3.5671060240949309E-03
               1.4569685901557083E-02
               1.4402188873175624E-03
               1.0575186309419532E-02
               2.6262542698268741E-03
               3.3251982784469440E-03
              -7.6096293915575274E-03
               1.2056155333547323E-03
               1.1678810043653873E-02
              -1.4694416036988008E-02
              -1.4772683771634420E-02
               1.6749627002031323E-02
              -7.7192398487469539E-03
               1.0363286288907436E-02
               8.4413432860304134E-04
               4.1517637150327268E-03
              -3.8884072063094270E-03
              -1.0089592930599763E-03
              -1.2420614064144627E-03
              -1.4991722166207611E-02
               6.7437134237259382E-03
              -2.7354782588319558E-03
               5.5370115921820557E-03
               5.1867393271223432E-03
               1.3476805349292156E-02
               2.0193297434261343E-03
              -1.2642277389339084E-02
               1.2128235885967904E-02
               3.5072017708149376E-03
              -8.1463308661459399E-03
               3.1270362665272965E-03
              -7.0736242137089868E-03
              -1.0723110921174921E-03
              -5.4470222166251086E-03
               6.6278284672140458E-04
               8.3444069757738896E-04
               9.4620098628262830E-03
               2.4332109311109044E-03
               8.8847514390440001E-04
               4.3824571415479879E-03
              -7.3634997297092625E-03
              -2.8113880050340510E-03
              -1.5331714385620601E-02
               1.3529281249798202E-02
               3.6706567782905123E-03
              -8.4941964022115617E-03
              -1.3089651549548777E-02
               1.5081305785386794E-02
               2.5428239289784545E-03
              -4.0461836287080484E-03
              -1.1599056462646052E-02
              -5.0650281918451119E-03
              -3.5214126694106227E-03
               1.7214664673788918E-02
               1.1260990747407934E-02
              -5.4833642332724171E-03
              -1.1545309238239822E-02
              -3.8927260942233045E-03
               2.4732276769309238E-03
              -2.6073697776364236E-03
               3.8615857620933119E-03
               8.6719796786482121E-03
              -5.0261787202402122E-03
              -1.2412217877584238E-03
               5.6113158391863311E-03
              -8.8142665210144567E-03
              -2.8550149422554324E-03
               6.1813133904946244E-03
               2.1535526441567444E-03
              -1.7430057731255592E-03
               1.9724344131339212E-02
              -6.1920041962768872E-03
              -2.1777271364049344E-02
               8.1509816988301446E-03
               2.0839680975693535E-03
              -1.1180068112652949E-03
              -4.9408680350774047E-03
              -4.6501389967409988E-04
              -9.4486066335547850E-03
               1.8743134143933717E-02
              -2.2841030491170997E-03
              -7.0179182545374932E-03
              -2.4055853557315402E-03
               1.2620762498554157E-03
              -7.0642951430441520E-03
               8.5136421862115012E-03
               5.2330168964205767E-03
              -2.8268573168830687E-02
               1.2606064016743516E-02
               7.1103401676754765E-03
              -7.6414245648707005E-03
               6.4636979589086452E-03
               2.1273619906516602E-02
              -4.1956491672412400E-04
               6.5595640932293231E-03
               4.5068368798976636E-03
              -4.6521866439442152E-04
               3.0264710161797509E-03
               8.6150827933046510E-04
               1.9419863702058058E-03
              -1.3344576877163412E-02
               6.2331401715198000E-03
              -6.6825961459530490E-03
              -2.2237388332095964E-04
               2.4768203675544168E-03
              -2.5547601862875358E-03
               3.2538712179917655E-04
               4.3868156251382325E-03
               1.4708951495327261E-04
              -3.0698674884959438E-03
               2.2890536844237834E-03
               6.9820166848834592E-04
               2.1839613719648846E-03
               1.5562775982115474E-03
              -1.0193457747262279E-02
               6.3792533071516415E-03
              -6.7850448415888304E-03
               4.2178140527383036E-03
               9.4304911175544827E-03
              -9.6593551224191804E-03
              -5.1392537862702302E-03
              -6.9207713701115621E-03
               6.7565646649922788E-03
              -1.2216753463004774E-02
              -5.4734339159325986E-03
               1.0768723283379172E-02
              -7.4603982863385562E-03
               8.9717296602326562E-03
              -9.2670002050475216E-03
              -1.4737954146334161E-02
              -1.9431889037913269E-03
               5.5382058225154568E-03
              -9.8481818269269585E-03
              -7.3369936132460355E-03
               4.3337701083940115E-03
               7.1011480029441977E-03
               1.2408948974692659E-02
              -6.7623180027753960E-03
              -5.0824573529214831E-03
              -6.3267037887125436E-03
               2.8647797588710862E-03
               7.5525222301202639E-03
              -1.1881086588425172E-02
              -8.1024391745940939E-03
               2.1898019634196405E-02
               4.1209916232200191E-03
              -1.5428829919604483E-02
              -6.2345111031971148E-03
               4.5395600614362265E-03
              -3.3132776263711593E-03
               4.4930182152168006E-03
              -1.3413809493363968E-04
               5.6115704701075733E-05
               7.7708542070660915E-03
              -1.1507238064904382E-02
               3.4694979318408560E-03
              -4.0209752446818759E-03
               1.2570064015519553E-02
               1.9462604842852996E-03
               7.0612308741264031E-03
              -1.3717711275042393E-03
              -9.4781852846912871E-04
              -6.6433116086655093E-03
               7.6306236400514663E-03
               8.0009443997590447E-03
               2.9089615683812967E-03
              -4.0477184727247852E-03
               7.0068556753717333E-04
              -5.9633269605628807E-03
               5.1047735281371763E-03
               1.2921430476407073E-03
               9.9427337098700209E-03
              -7.2603147567918925E-03
              -2.4849769398810361E-03
              -3.3741144806590465E-03
              -2.0543627845990599E-03
              -2.8731296818248660E-03
              -1.5346593639299112E-03
              -1.6479607437478309E-03
               3.4366198838098592E-03
               8.1603169357556821E-03
               5.0532786839410206E-03
              -1.3275478212959421E-02
               1.5104575615653422E-03
               1.2885774011237648E-03
               1.7380426523999448E-03
               1.4158704867560743E-03
               7.4010930973273537E-03
               8.9784395436920807E-04
               2.2919298092101757E-03
              -1.0559893219266188E-02
              -6.7292587895352836E-03
               4.9090355163396750E-03
              -9.7009283596618985E-03
               1.9217718804778994E-03
               8.0912614363127925E-04
              -2.0269646616050767E-03
               1.1845827617389545E-03
              -1.4521299522480152E-03
               8.0998690154422664E-03
              -2.7726083405224876E-03
              -2.6406739307498002E-03
               1.3781470279353647E-03
              -1.1203008093894577E-03
              -6.3950162413786470E-03
              -4.5342322853344505E-03
               7.6657413907600816E-03
               5.1935423557936686E-03
               3.4893383980704829E-04
              -1.1556369633648020E-02
              -1.3070450632683799E-02
               1.5299033353050568E-02
               3.7314744764667717E-03
               6.0772589350867783E-03
              -3.8777396451852974E-03
              -1.0916038350955656E-02
               6.0899442829176606E-03
              -1.8612104626564195E-03
              -1.3476630091782280E-02
              -3.5362289358549094E-03
              -8.9184040881029603E-03
               1.8693301501174423E-03
              -1.7874447921837218E-03
               1.1491679080803939E-02
               5.1528231944154759E-03
              -7.8096093662465981E-04
              -8.2543115472577568E-03
              -6.1763723631996846E-04
               8.5648559034969245E-04
               2.0991263441580586E-03
               2.0391234118958546E-03
               5.0796423106920707E-03
              -5.3059063869403799E-03
               8.4578008983014034E-03
               7.4752069171938650E-03
               5.9091753073362376E-04
              -2.0459226000227892E-03
               1.4744562386319728E-04
              -1.4221658135806186E-03
              -3.4665196249464270E-04
               5.6392732152028410E-03
               1.4023889625149681E-02
              -1.1711393177921421E-02
              -1.1917401959947166E-02
              -5.0829654945300732E-03
               1.1276046210223503E-02
              -2.2815261175023771E-03
               2.1773675674802489E-03
              -7.8131918876950517E-04
              -8.5411204765630955E-03
               1.1499688152586136E-02
              -2.2891942106402618E-03
              -3.6086175511692796E-03
               1.3063007845011229E-02
               6.2523616582406249E-03
               1.3871128098083801E-04
               7.3249897377469222E-03
              -5.7502932441776426E-03
              -1.1938042826893706E-02
               3.7407498621642192E-03
              -2.5409996467846809E-03
               1.6612551455286377E-03
              -2.9869608234260421E-03
              -2.8521687734875721E-03
         &END THERMOSTAT_ENERGY
         &RNG_INIT
Wiener process for Thermostat # 1        1 F T T  -1.5601997779545997E+00        4027757407.0        1559045809.0        3403552754.0        1703120254.0         453778739.0        2861026355.0             12345.0             12345.0             12345.0             12345.0             12345.0             12345.0             12345.0             12345.0             12345.0             12345.0             12345.0             12345.0
Wiener process for Thermostat # 2        1 F T T  -4.0112764818655514E-02        3838101567.0        1430396723.0        1556923290.0        2889325561.0         607612135.0        3761282217.0        3692455944.0        1366884236.0        2968912127.0         335948734.0        4161675175.0         475798818.0        3692455944.0        1366884236.0        2968912127.0         335948734.0        4161675175.0         475798818.0
Wiener process for Thermostat # 3        1 F T T  -2.7485675335982579E-01         482699311.0        2506409672.0        1202736307.0        1073196783.0        1141297417.0        2856513754.0        1015873554.0        1310354410.0        2249465273.0         994084013.0        2912484720.0        3876682925.0        1015873554.0        1310354410.0        2249465273.0         994084013.0        2912484720.0        3876682925.0
Wiener process for Thermostat # 4        1 F T T  -9.8957058820594379E-01        3129827523.0        3549124345.0        1353678049.0        1344233659.0        2578763699.0        1106953444.0        2338701263.0        1119171942.0        2570676563.0         317077452.0        3194180850.0         618832124.0        2338701263.0        1119171942.0        2570676563.0         317077452.0        3194180850.0         618832124.0
Wiener process for Thermostat # 5        1 F T T   8.1743834600370391E-01         587879607.0         702838090.0         820286405.0        1159088393.0        1840431053.0        2379049004.0        1597262096.0        3906379055.0        3312112953.0        1016013135.0        4099474108.0         275305423.0        1597262096.0        3906379055.0        3312112953.0        1016013135.0        4099474108.0         275305423.0
Wiener process for Thermostat # 6        1 F T T  -4.6635220676026440E-01        1255338812.0        2941627828.0        2767710176.0        1701464963.0        2824905014.0        2257709657.0          97147054.0        3131372450.0         829345164.0        3691032523.0        3006063034.0        4259826321.0          97147054.0        3131372450.0         829345164.0        3691032523.0        3006063034.0        4259826321.0
Wiener process for Thermostat # 7        1 F T T  -2.7221417990508723E-01        2928923925.0        1475590831.0        3028549759.0        1729569924.0         123262326.0        1965188850.0         796079799.0        2105258207.0         955365076.0        2923159030.0        4116632677.0        3067683584.0         796079799.0        2105258207.0         955365076.0        2923159030.0        4116632677.0        3067683584.0
Wiener process for Thermostat # 8        1 F T T  -1.3371509559371584E+00        3293786404.0        2324351260.0        4224364702.0        1341956089.0         912321799.0        2697559406.0        3281794178.0        2616230133.0        1457051261.0        2762791137.0        2480527362.0        2282316169.0        3281794178.0        2616230133.0        1457051261.0        2762791137.0        2480527362.0        2282316169.0
Wiener process for Thermostat # 9        1 F T T  -8.7225140957356684E-01         657961678.0        1513147170.0        2219186603.0        4111646695.0         616753226.0        2747528653.0        3777646647.0        1837464056.0        4204654757.0         664239048.0        4190510072.0        2959195122.0        3777646647.0        1837464056.0        4204654757.0         664239048.0        4190510072.0        2959195122.0
Wiener process for Thermostat # 10       1 F T T  -6.2889449580622436E-01          96284293.0        2446379684.0        3801610533.0        2961863039.0        1877110468.0         129512113.0        4215590817.0        3862461878.0        1087200967.0        1544910132.0         936383720.0        1611370123.0        4215590817.0        3862461878.0        1087200967.0        1544910132.0         936383720.0        1611370123.0
Wiener process for Thermostat # 11       1 F T T   5.7191327297384098E-01         909895394.0        1862319182.0        2400367466.0        1201802882.0        2818881371.0          83822050.0        1683636369.0         362165168.0         814316280.0         869382050.0         980203903.0        2062101717.0        1683636369.0         362165168.0         814316280.0         869382050.0         980203903.0        2062101717.0
Wiener process for Thermostat # 12       1 F T T  -2.0098512161557830E-01        4281566709.0        2729512869.0         275332126.0         437149450.0        1041778670.0        1778805263.0         272317999.0         166758548.0         310112982.0         201045826.0        1680231254.0         118290799.0         272317999.0         166758548.0         310112982.0         201045826.0        1680231254.0         118290799.0
Wiener process for Thermostat # 13       1 F T T   9.4560796151122029E-01        3557498645.0        2583014714.0        2425630516.0         920535172.0        3770643442.0         978988578.0        2245755202.0        1652682525.0        2865544364.0         721509566.0         209733568.0         592362218.0        2245755202.0        1652682525.0        2865544364.0         721509566.0         209733568.0         592362218.0