 # Version information for this restart file 
 # current date 2024-11-21 18:51:47.820
 # current working dir /scratch/work/courses/CHEM-GA-2671-2024fa/students/wx2237/comp-lab-class-2024/Week12-IntroAIMD/Runs/Water
 # Program compiled at                              Sat Dec 12 18:27:15 EST 2020
 # Program compiled on                                         cs001.nyu.cluster
 # Program compiled for                                                nyu-intel
 # Source code revision number                                       git:8c64c6e
 &GLOBAL
   PRINT_LEVEL  LOW
   PROJECT_NAME water_aimd_1ps_every0.5fs
   RUN_TYPE  MD
   WALLTIME 21600
 &END GLOBAL
 &MOTION
   &GEO_OPT
     OPTIMIZER  BFGS
     MAX_ITER  100
     MAX_DR     3.0000000000000001E-03
     &BFGS
     &END BFGS
   &END GEO_OPT
   &MD
     ENSEMBLE  NVT
     STEPS  2000
     TIMESTEP     4.9999999999999994E-01
     STEP_START_VAL  1999
     TIME_START_VAL     9.9949999999998238E+02
     ECONS_START_VAL    -1.1023558357480233E+03
     TEMPERATURE     3.0000000000000000E+02
     &THERMOSTAT
       TYPE  GLE
       REGION  MASSIVE
       &GLE
         NDIM  5
         A_SCALE     1.0000000000000000E+00
         A_LIST     1.8595758612559999E+02    2.7263853498399998E-01    1.1526100454610001E+01   -3.6414578262600003E+01 \
             2.3173375816020001E+02
         A_LIST    -2.7809524712060002E-01    8.5951591808710006E-05    7.2189048017650004E-01   -1.9844539343859999E-01 \
             4.2409257583420001E-01
         A_LIST    -1.4825808131210000E+01   -7.2189048017650004E-01    1.3590902121280000E+00    5.1498896280349999E+00 \
            -9.9949268450990001E+00
         A_LIST    -1.0372189126880000E+01    1.9844539343859999E-01   -5.1498896280349999E+00    2.6661910891169999E+01 \
             1.1507715495310000E+01
         A_LIST     2.1801346360420001E+02   -4.2409257583420001E-01    9.9949268450990001E+00   -1.1507715495310000E+01 \
             3.0958394565589998E+02
         &THERMOSTAT_ENERGY
              -1.6682035308394330E-03
              -1.8487167124774985E-03
              -6.3064703635675227E-04
               7.8130540189302981E-03
              -1.2291994022208161E-02
               2.0186526456063029E-03
              -6.2139138796369980E-04
              -6.2274627577935376E-03
               1.8048883277839260E-02
               3.0827845751563183E-03
               1.2783100324900555E-02
               9.5610448848153771E-04
              -7.7761152268587715E-03
              -6.4679331714871903E-03
              -2.9055350102551267E-04
              -7.9454247613154495E-03
               1.8268860854597124E-02
              -2.3334781031930474E-03
               6.4530187686765456E-03
              -6.5347118588846755E-03
              -2.9227700388297839E-03
               4.5985153133212388E-03
              -1.0508624555136988E-02
              -4.3557707880081068E-03
               2.9676567721847471E-03
               2.8560528634768794E-03
               3.3221715123921722E-03
               1.2777853526809916E-03
               1.1585735615574822E-02
               2.2482692195526311E-03
               2.5034096853904109E-03
              -3.6991606181798506E-03
               3.0644455608884276E-03
               2.7615484267551160E-03
              -1.3885616587888236E-02
               1.4598372080866739E-02
               3.2038664824225664E-03
              -3.4814841374414783E-03
               1.4464376966724234E-03
               6.9402651810751030E-03
              -5.5336814584751870E-03
              -7.9906908238974728E-03
               8.7189484335422635E-03
               4.5539479163918557E-03
              -1.6205161333765015E-03
               1.8431867115932237E-03
              -9.0298608132515087E-04
               6.7285201414693067E-03
               5.9912652035146834E-03
               1.9476375844250098E-03
              -2.8022842568266532E-03
               2.6558959512533314E-03
              -7.7486492798837722E-03
              -7.0263296329102411E-04
              -6.0099266988660272E-03
               4.7552315396305134E-03
              -3.5186626142468718E-03
              -4.0496590407958577E-03
              -8.7044289843129206E-04
               1.9198217334451758E-02
               2.5144619761904448E-03
              -8.8842611319775236E-03
               1.6951372856883286E-02
              -5.1966490384681612E-03
               5.0143229663742375E-03
               2.1692738355761540E-03
              -8.6600540323028118E-03
               5.3707581825077032E-03
               2.1420177084807535E-02
               1.5876817101460664E-03
              -2.0885196713919542E-03
              -1.4272779071389487E-02
              -1.3863873317874137E-03
               2.4137563725217942E-03
              -2.8524970471514031E-04
              -9.6987859734663524E-03
               2.4443527462849044E-03
               3.9920676826982297E-03
               6.0493596474619632E-03
              -9.4449248951311050E-03
               2.0153783729489571E-02
              -3.9004261242329536E-03
               2.7998613960966878E-03
               1.3854658729361416E-03
              -1.7076649893862873E-03
               9.7408970296446653E-03
               3.2678583076217196E-03
              -7.6426476493481896E-03
               3.2891075263169183E-03
               1.1244369159243105E-04
               3.8994639228794913E-03
              -9.5648102375771420E-03
               7.6813954636733672E-04
              -7.6528578637586374E-03
              -7.7677450313995726E-03
               4.1905305188617813E-03
               1.0903737777761758E-02
               6.9939799220083054E-04
               4.9290613558883268E-03
              -6.7150854954558723E-04
              -1.3446883990770370E-03
              -1.0169072954856173E-02
               4.5512877303114773E-03
              -3.0372484905185440E-03
              -2.3581388237142785E-04
               1.4440773729393350E-02
               8.8875640508501315E-04
              -3.9491551350954793E-03
               2.4637499296940486E-03
              -6.0548306303015069E-03
               3.3832578749140190E-03
               6.3152353982809774E-03
              -3.2633819317523243E-03
              -6.4894358284150067E-03
               8.1823375384281714E-03
               6.0722273134729363E-03
              -1.5609601453977568E-02
               6.2514925319897274E-03
               4.3768113275050660E-03
               7.9116863200066126E-03
               8.5738148879889176E-03
              -4.4252228306932073E-03
              -1.9265173926254018E-03
               6.0713072699281490E-03
              -9.3368280468426879E-03
              -2.0717146764108883E-03
               3.5388138689462084E-03
               5.1141349366237883E-04
              -3.7140318507004988E-03
               5.1543177551235430E-03
              -4.1697127222069912E-03
               5.4371176471759899E-03
              -1.2337141948108910E-02
               6.3509943005592272E-03
               1.8664507551878311E-04
              -1.0129487170085607E-04
              -3.7205569718182915E-03
              -5.7775975629190636E-03
               2.7205685516966996E-03
              -2.6000294411378357E-03
               3.4642627115653935E-03
              -4.6380046996847418E-03
               1.6303327953803699E-02
              -5.0790422045894033E-03
              -6.7534876880756848E-03
              -1.6040790089175243E-03
               5.6010034241869792E-03
               1.0600553527784247E-02
               2.8534077703990840E-03
              -4.6813454337684759E-03
              -1.6967641136050381E-02
               7.6387918002776937E-03
              -3.1499500680886254E-05
              -5.9993490043374021E-03
               1.0187112312047658E-02
              -1.4954795268619441E-03
              -1.3783300574138201E-03
               4.8146264352656861E-03
              -1.3101049820862260E-03
               2.0405301917115946E-03
              -1.0628625736730192E-02
              -8.6066475086165658E-03
              -9.8047172673690038E-04
               1.3706631194064468E-04
               9.4785600853488743E-03
               1.2377473158932679E-02
               2.6034232785141576E-03
              -2.0888848564396031E-02
              -6.4688892660410618E-03
               1.3371029976469561E-02
              -3.8288827009372705E-03
              -3.1244792975437283E-03
               1.1639028514395379E-03
              -5.4041700821784383E-03
              -4.0071569428842945E-03
               2.2124440342596221E-03
              -7.9049402679780972E-03
               2.0572943345302150E-03
               3.8981823806228978E-03
               8.2851052998424365E-03
              -2.9266652870140542E-03
               4.9913918508230398E-04
               7.1806473513961449E-03
              -1.8806095281511274E-02
               1.1318664035990845E-02
               1.1496724704184763E-03
              -4.4625240440499996E-03
              -5.5474531128763471E-04
              -1.9574790899235736E-03
              -3.9993629350012865E-04
               4.0237264088525083E-03
               1.6495503400652871E-04
              -1.2081343287135046E-02
               8.5564020710305489E-03
               9.5516862503434267E-03
              -8.1746472673308191E-03
              -7.2515612866955962E-03
               2.2573283199106915E-03
              -4.6075382351980238E-03
              -4.6150848607034662E-03
              -1.7618223695608499E-03
              -2.1468246669081969E-03
               1.6953224864862133E-02
              -4.3977119957646854E-03
              -6.1765086969795442E-03
              -7.3714982545465004E-04
              -4.0971222846715111E-03
              -1.0665020029404070E-03
              -1.6309625217663943E-03
              -3.7623212960455213E-04
               1.3832708242575167E-02
              -7.7416613596669450E-03
               1.0703793773413442E-02
              -5.9632453752192912E-03
               5.5111244368843846E-03
              -2.4203608291272043E-03
              -1.4434964842940096E-02
               9.8235669518309792E-03
               3.1252111868327703E-03
              -1.7196317700403425E-02
              -3.9001157846259875E-03
               6.6954069591553217E-04
              -3.1163867307592175E-04
               1.7523880517847437E-02
              -2.8941304764449256E-03
               1.5503982135761974E-03
               2.8457197203999741E-03
               9.3854230191820973E-04
               4.8833847211601127E-03
              -3.5632119549846709E-03
              -1.2374201490814854E-02
              -1.5727055181695071E-03
               1.4243704100625480E-02
              -5.4640024728641549E-03
               1.3629084789746285E-03
               4.0546020424793812E-03
               4.5089591357140417E-04
              -2.7939932411471533E-03
               1.2783540308141139E-02
               7.2368773615115083E-03
              -5.3870244210457337E-03
              -8.8734403807856389E-03
              -7.4242206239799298E-04
              -3.8040463621871346E-03
               3.6405916820455679E-03
               3.8372323412855236E-03
               5.9005541124517516E-03
              -3.7913188584596256E-03
               7.7620379538338583E-04
               2.7699888415023918E-03
               6.8618463572504189E-03
              -1.2021547641328489E-02
              -7.0652843546814368E-03
              -7.2380415565037898E-03
               6.0640132862141479E-03
              -8.8873394053963029E-04
               7.6615994424453519E-03
              -3.7468220572655971E-03
               1.6005325761729004E-02
              -2.1540586378922408E-02
               2.1514763838497736E-02
               1.3527416144591322E-03
               1.9812137292146382E-03
              -6.5276214309471304E-04
               4.2507459495105702E-03
              -6.7567168420783171E-03
               5.4795791859827634E-05
              -5.8797263882046074E-03
               7.3289223793587561E-04
               7.3145171267841314E-03
              -1.9865333222329291E-03
              -5.0090433514622607E-03
              -1.0306248402383990E-03
               1.1433275199769763E-02
               4.1775002352830099E-03
               2.1128762431543969E-03
              -2.8287705731591513E-02
               2.4089259161774599E-02
              -6.8275567651889212E-03
               7.4604374440788513E-03
              -7.4494997620405921E-03
               1.5755938904238199E-03
               7.9214560352090530E-03
              -4.3137371807904267E-03
              -3.9503320520981088E-03
               4.9858005998283791E-03
              -1.3081124718156915E-03
              -1.0640363822865239E-02
              -2.2041347595123614E-03
              -6.9485282472827854E-04
              -2.9381358333546779E-03
               1.4596929615168848E-02
              -1.9387832897287799E-03
              -7.2368887519443760E-03
               1.8870899284356198E-03
               1.1196912613408629E-02
              -1.2516440382176445E-02
              -1.6243782429398424E-03
              -5.1611671767096169E-03
               3.5453248765084105E-04
              -1.0954697041087539E-02
               3.7105702099037422E-03
               7.4229183347627242E-03
               1.3227095772117669E-03
               8.0300449546066490E-03
              -1.1586664653492260E-02
              -2.4311491181583786E-03
              -1.3869005075978615E-03
              -2.0504060592523728E-03
               1.6442899024623318E-02
              -6.9758522632550734E-03
              -6.4715329615216578E-03
              -3.8762322208127837E-03
               1.2885730987927491E-02
               1.3005853244081834E-03
               1.1849509300093904E-02
               2.4709401807653355E-03
               2.3170453367091738E-03
              -7.6769316307070600E-03
               1.2639713656572987E-03
               1.1509092311209664E-02
              -1.5478143664425527E-02
              -1.4808482472961274E-02
               1.6848935091462670E-02
              -7.6720211730237813E-03
               1.0523715532327619E-02
               9.6878703089515843E-04
               4.2644857231702877E-03
              -3.3800977908920475E-03
              -1.0781800433839947E-03
              -1.4590237378391969E-03
              -1.5892223765230560E-02
               6.9549426335612065E-03
              -2.9309076364617184E-03
               5.5790858808400668E-03
               5.1622914608078696E-03
               1.3782964849755684E-02
               1.6293155972793381E-03
              -1.2936471427827317E-02
               1.1799741612399444E-02
               3.2287958885386138E-03
              -7.9009958866705261E-03
               3.0162886184978087E-03
              -7.0981392664030384E-03
              -7.8573052637120183E-04
              -4.9171494440788353E-03
               3.6189102860666265E-04
               8.2896510865679578E-04
               9.7291618632444170E-03
               2.5442186769330105E-03
               1.4737268995347478E-03
               4.4222697105588751E-03
              -8.0503757175306272E-03
              -2.8348231089133321E-03
              -1.5298178791348439E-02
               1.2916863256801825E-02
               3.6789886812279666E-03
              -8.4964519506524425E-03
              -1.3204507329163668E-02
               1.5346185647665683E-02
               2.5189267024913076E-03
              -3.9945653764269992E-03
              -1.1174989814694145E-02
              -5.0049113501035207E-03
              -3.5724870725417539E-03
               1.7043278738304322E-02
               1.1226374227436789E-02
              -5.4745766679773983E-03
              -1.1528397994207662E-02
              -3.9235285239923789E-03
               2.4176295838142787E-03
              -2.5467161336515231E-03
               4.0929228231108578E-03
               8.7936281023938238E-03
              -4.5756805084146059E-03
              -6.0190098848826373E-04
               5.6284306170373095E-03
              -8.8047587643209652E-03
              -2.8867305083026158E-03
               6.2575171004040113E-03
               2.1517795836880895E-03
              -1.9420294564186514E-03
               2.0128650789063746E-02
              -6.2833646925826948E-03
              -2.1138944325757986E-02
               8.5049738598419865E-03
               2.0879234041516087E-03
              -9.5313822730354477E-04
              -5.3248405929705962E-03
              -7.6714069189640489E-04
              -9.2399209979663437E-03
               1.9400214595749296E-02
              -2.1525683755679878E-03
              -7.1730505357316572E-03
              -2.5491728162406399E-03
               1.3268774531656751E-03
              -7.0845192599114587E-03
               8.4484318424184572E-03
               5.7066622672462238E-03
              -2.8282487288488537E-02
               1.1901116607976806E-02
               7.2047194202230274E-03
              -7.6754111441552303E-03
               6.5299013222654785E-03
               2.1239330052944254E-02
              -2.6223698421093747E-04
               6.9040195079116112E-03
               6.1291803861322604E-03
              -6.6413741039204747E-04
               3.0263629849119605E-03
               9.4636459629618831E-04
               1.8502778685715524E-03
              -1.2403536732084596E-02
               6.4941891729401761E-03
              -6.6459162166164435E-03
              -2.5004571683581169E-04
               2.9088835560034296E-03
              -2.6948571581375470E-03
               1.8804133227612308E-04
               3.9397051531784612E-03
               2.3692859284433804E-04
              -2.9820390643278032E-03
               2.1590603031249531E-03
               6.4521042579981230E-04
               2.3714604932933169E-03
               1.7223992196869218E-03
              -1.0275996565646598E-02
               6.3642292658932318E-03
              -6.9896283364254191E-03
               4.1408866520083161E-03
               9.0573091876198428E-03
              -9.6989677597207578E-03
              -4.7053402742724855E-03
              -6.9568506533338337E-03
               5.9531550174488019E-03
              -1.1944966151801273E-02
              -5.5901714851520554E-03
               1.0708101728227074E-02
              -7.4701328721416384E-03
               9.2141679094721214E-03
              -9.1392371065056356E-03
              -1.4737812774063230E-02
              -1.8971529815780411E-03
               5.3861371653856488E-03
              -9.7685480470681152E-03
              -7.3680922077142569E-03
               4.1866351671087619E-03
               6.9464599402704599E-03
               1.2417850263128931E-02
              -6.7689467570707391E-03
              -5.1293408617667617E-03
              -6.0924821370917570E-03
               2.9678818427548341E-03
               7.5437313438641521E-03
              -1.2172267903509894E-02
              -7.9726357367076034E-03
               2.1938597102412798E-02
               4.2106748066594530E-03
              -1.5867219207996670E-02
              -5.9019515670037798E-03
               4.5341685461631424E-03
              -3.2997462986735461E-03
               4.0340129198997935E-03
              -1.4467292638928710E-04
               3.2848400211706009E-04
               7.7423047655138730E-03
              -1.1468200138657623E-02
               3.3839050678741061E-03
              -4.2576895388745295E-03
               1.2549097674242475E-02
               1.7659067922972289E-03
               7.0389769623926566E-03
              -5.0087703853124574E-04
              -8.5618050330289524E-04
              -6.6051404286252800E-03
               7.4198621727207476E-03
               8.9686658090781662E-03
               3.0623202694376704E-03
              -3.5992358832854757E-03
               7.3858199645581736E-04
              -5.4626041640704094E-03
               5.9289142751786572E-03
               6.7052373909265537E-04
               1.0066725859132156E-02
              -7.5324663804408349E-03
              -2.5262507167484139E-03
              -3.4513959523384419E-03
              -1.8601016900250862E-03
              -2.6127377546500984E-03
              -1.7456275170258534E-03
              -1.6826607111074061E-03
               3.5465352007393283E-03
               8.0447010942645020E-03
               4.8888466667615146E-03
              -1.3010410043283398E-02
               1.4480737618583479E-03
               1.7806385063207362E-03
               1.1667207457719724E-03
               1.4649745308729183E-03
               7.3481132314095433E-03
               6.4072346360569176E-04
               1.7416122426158046E-03
              -9.6155743798171812E-03
              -6.7379195978745964E-03
               4.8949587428320568E-03
              -9.1887011693576100E-03
               1.7527156108226750E-03
               8.2532761623751029E-04
              -2.0750916275340120E-03
               4.1047231229415283E-04
              -1.2949945879980598E-03
               8.1504821445430864E-03
              -2.8222472378452985E-03
              -2.6829665375584567E-03
               1.3212024817354881E-03
              -9.8658745363852836E-04
              -6.8017710531611411E-03
              -4.5197713058995502E-03
               7.8235856213320354E-03
               5.2456004184734039E-03
               3.7715853118422556E-04
              -1.1701106264388160E-02
              -1.2842187608168042E-02
               1.5225822312598281E-02
               3.8304623372811997E-03
               5.4390286797043816E-03
              -3.9401155307966281E-03
              -1.1211409574637511E-02
               5.7420406458692395E-03
              -1.4240815033214923E-03
              -1.3201153936999409E-02
              -3.6103987907639122E-03
              -1.0408752242089226E-02
               1.8314716900856558E-03
              -2.2412312348504410E-03
               1.1663138760784349E-02
               5.0520761594472618E-03
               2.6567596161625119E-04
              -8.1924328514812583E-03
              -2.4563822715927205E-03
               1.1117851454196890E-03
               2.1521741650010785E-03
               2.0240793388931234E-03
               5.0212440601388724E-03
              -5.5585770509774049E-03
               9.1772717156662596E-03
               7.5515440618549937E-03
               2.8411737107129876E-04
              -2.0731572281705740E-03
               1.3042549319414366E-04
              -1.0667758620946509E-03
              -9.9322317269449553E-04
               5.5261300513786407E-03
               1.3874423849706601E-02
              -1.1790175669530664E-02
              -1.1931839434412577E-02
              -4.8821645931788737E-03
               1.1834916171032606E-02
              -2.3636360813487768E-03
               2.1174294825928729E-03
              -9.0045972688909139E-04
              -8.4320600078387469E-03
               1.1576643793636817E-02
              -2.2435408886696197E-03
              -3.7367873474751854E-03
               1.3322277792115908E-02
               6.4010602049994550E-03
              -1.2861217120504964E-03
               7.4991931286944660E-03
              -6.3206438815559644E-03
              -1.0247108591177128E-02
               3.9864483811070904E-03
              -1.6790167062900932E-03
               1.2704340808623784E-03
              -2.5889010715045551E-03
              -2.8269684506602717E-03
         &END THERMOSTAT_ENERGY
         &RNG_INIT
Wiener process for Thermostat # 1        1 F T T  -1.3877964172148927E+00        3819968671.0        1923139303.0        2505174482.0        1129753110.0        1102497896.0        2318485114.0             12345.0             12345.0             12345.0             12345.0             12345.0             12345.0             12345.0             12345.0             12345.0             12345.0             12345.0             12345.0
Wiener process for Thermostat # 2        1 F T T   5.9690975612399577E-01        1863048650.0        1167059563.0        4156553466.0        2659491592.0        2500563110.0        2967422577.0        3692455944.0        1366884236.0        2968912127.0         335948734.0        4161675175.0         475798818.0        3692455944.0        1366884236.0        2968912127.0         335948734.0        4161675175.0         475798818.0
Wiener process for Thermostat # 3        1 F T T  -1.9577134425325560E-01        2029679022.0        1992813296.0        1475024831.0        3744841000.0        4231717232.0        1872789393.0        1015873554.0        1310354410.0        2249465273.0         994084013.0        2912484720.0        3876682925.0        1015873554.0        1310354410.0        2249465273.0         994084013.0        2912484720.0        3876682925.0
Wiener process for Thermostat # 4        1 F T T  -5.5423907268054418E-01         972191078.0        3239779000.0        2283144792.0        4029872124.0        2868550739.0         388907277.0        2338701263.0        1119171942.0        2570676563.0         317077452.0        3194180850.0         618832124.0        2338701263.0        1119171942.0        2570676563.0         317077452.0        3194180850.0         618832124.0
Wiener process for Thermostat # 5        1 F T T  -3.6874052824979625E-01         246061856.0        2033992607.0        4208640487.0        3425480013.0        1713937449.0        3033523858.0        1597262096.0        3906379055.0        3312112953.0        1016013135.0        4099474108.0         275305423.0        1597262096.0        3906379055.0        3312112953.0        1016013135.0        4099474108.0         275305423.0
Wiener process for Thermostat # 6        1 F T T   5.7875332706651861E-01        4268450248.0        1240555256.0        2123119467.0         299173953.0        2368881629.0        2698044585.0          97147054.0        3131372450.0         829345164.0        3691032523.0        3006063034.0        4259826321.0          97147054.0        3131372450.0         829345164.0        3691032523.0        3006063034.0        4259826321.0
Wiener process for Thermostat # 7        1 F T T  -1.8983145396195047E+00        4260312323.0         705196258.0         937296972.0        1373994383.0        3179698350.0        3757299263.0         796079799.0        2105258207.0         955365076.0        2923159030.0        4116632677.0        3067683584.0         796079799.0        2105258207.0         955365076.0        2923159030.0        4116632677.0        3067683584.0
Wiener process for Thermostat # 8        1 F T T  -3.3116685260855833E-01        2351531572.0        3477839446.0        1021048571.0        1975906828.0        1893564842.0         777663015.0        3281794178.0        2616230133.0        1457051261.0        2762791137.0        2480527362.0        2282316169.0        3281794178.0        2616230133.0        1457051261.0        2762791137.0        2480527362.0        2282316169.0
Wiener process for Thermostat # 9        1 F T T   1.4386427466100791E+00        3265425123.0        2999969280.0        3048908474.0        1047403656.0         134736569.0        4209884843.0        3777646647.0        1837464056.0        4204654757.0         664239048.0        4190510072.0        2959195122.0        3777646647.0        1837464056.0        4204654757.0         664239048.0        4190510072.0        2959195122.0
Wiener process for Thermostat # 10       1 F T T  -2.3947144259907721E-01        2825100143.0        2025717467.0        3827127036.0        1422979577.0        1026966836.0        1481957392.0        4215590817.0        3862461878.0        1087200967.0        1544910132.0         936383720.0        1611370123.0        4215590817.0        3862461878.0        1087200967.0        1544910132.0         936383720.0        1611370123.0
Wiener process for Thermostat # 11       1 F T T   2.8146058156813852E-01        3161233422.0        2404453347.0        1673723662.0         906337025.0          73303549.0        1016746719.0        1683636369.0         362165168.0         814316280.0         869382050.0         980203903.0        2062101717.0        1683636369.0         362165168.0         814316280.0         869382050.0         980203903.0        2062101717.0
Wiener process for Thermostat # 12       1 F T T  -6.6211933450441895E-01         208754144.0        1983222026.0        1378772639.0         460703296.0         651350573.0        3898252829.0         272317999.0         166758548.0         310112982.0         201045826.0        1680231254.0         118290799.0         272317999.0         166758548.0         310112982.0         201045826.0        1680231254.0         118290799.0
Wiener process for Thermostat # 13       1 F T T   2.2418582236869027E-02         545702192.0         878923556.0         464381839.0        1267067492.0        3004786620.0        2258194530.0        2245755202.0        1652682525.0        2865544364.0         721509566.0         209733568.0         592362218.0        2245755202.0        1652682525.0        2865544364.0         721509566.0         209733568.0         592362218.0