 # Version information for this restart file 
 # current date 2024-11-21 18:51:33.931
 # current working dir /scratch/work/courses/CHEM-GA-2671-2024fa/students/wx2237/comp-lab-class-2024/Week12-IntroAIMD/Runs/Water
 # Program compiled at                              Sat Dec 12 18:27:15 EST 2020
 # Program compiled on                                         cs001.nyu.cluster
 # Program compiled for                                                nyu-intel
 # Source code revision number                                       git:8c64c6e
 &GLOBAL
   PRINT_LEVEL  LOW
   PROJECT_NAME water_aimd_1ps_every0.5fs
   RUN_TYPE  MD
   WALLTIME 21600
 &END GLOBAL
 &MOTION
   &GEO_OPT
     OPTIMIZER  BFGS
     MAX_ITER  100
     MAX_DR     3.0000000000000001E-03
     &BFGS
     &END BFGS
   &END GEO_OPT
   &MD
     ENSEMBLE  NVT
     STEPS  2000
     TIMESTEP     4.9999999999999994E-01
     STEP_START_VAL  1997
     TIME_START_VAL     9.9849999999998249E+02
     ECONS_START_VAL    -1.1023558357480233E+03
     TEMPERATURE     3.0000000000000000E+02
     &THERMOSTAT
       TYPE  GLE
       REGION  MASSIVE
       &GLE
         NDIM  5
         A_SCALE     1.0000000000000000E+00
         A_LIST     1.8595758612559999E+02    2.7263853498399998E-01    1.1526100454610001E+01   -3.6414578262600003E+01 \
             2.3173375816020001E+02
         A_LIST    -2.7809524712060002E-01    8.5951591808710006E-05    7.2189048017650004E-01   -1.9844539343859999E-01 \
             4.2409257583420001E-01
         A_LIST    -1.4825808131210000E+01   -7.2189048017650004E-01    1.3590902121280000E+00    5.1498896280349999E+00 \
            -9.9949268450990001E+00
         A_LIST    -1.0372189126880000E+01    1.9844539343859999E-01   -5.1498896280349999E+00    2.6661910891169999E+01 \
             1.1507715495310000E+01
         A_LIST     2.1801346360420001E+02   -4.2409257583420001E-01    9.9949268450990001E+00   -1.1507715495310000E+01 \
             3.0958394565589998E+02
         &THERMOSTAT_ENERGY
              -1.7190998022158894E-03
              -2.2003223509415963E-03
              -7.9409629834906637E-04
               7.2176256876387446E-03
              -1.2167607341280603E-02
               1.7235317960534020E-03
              -8.7305325931458190E-04
              -6.1266803103355513E-03
               1.8114672958568036E-02
               2.9258340474240230E-03
               1.2753311483478134E-02
               6.0032196052221451E-04
              -7.0649817686072999E-03
              -6.6200820658231935E-03
               1.9740185238031094E-04
              -8.3814556603284025E-03
               1.8422763291484602E-02
              -3.5241905074863129E-03
               7.2605482052277622E-03
              -5.8555779659988649E-03
              -3.1475127980880513E-03
               4.6797425671879283E-03
              -9.7853452946963619E-03
              -4.4897484435160251E-03
               3.1392546528885902E-03
               3.8128877881242942E-03
               3.5056982862742064E-03
               1.2599740507449760E-03
               1.2472047790968433E-02
               2.1784875254405919E-03
               2.5272758122848594E-03
              -3.6247877800524271E-03
               2.9320030265588600E-03
               2.5699940067634929E-03
              -1.4000430313660678E-02
               1.5184067943589223E-02
               3.1492069079589323E-03
              -3.6702106216969757E-03
               1.4965456673404244E-03
               6.1750862435440250E-03
              -5.5066166111719219E-03
              -8.9978277246795298E-03
               9.4001969979507286E-03
               4.2009709970084611E-03
              -1.7422626986469735E-03
               3.9943540925966173E-03
              -8.7566248328604945E-04
               7.4450184071559343E-03
               5.8970910392476834E-03
              -9.1667376284796211E-05
              -3.7275992232657989E-03
               2.9469505400609762E-03
              -7.7611344578647429E-03
              -7.1249187470061196E-04
              -5.9340509165695882E-03
               4.5283014163389236E-03
              -3.5349060374784439E-03
              -4.4183455670586489E-03
              -1.4727539190841250E-03
               1.9305690954127569E-02
               2.0045500233939078E-03
              -8.5596357733662559E-03
               1.6461183958148499E-02
              -5.1032096404357314E-03
               4.4486862529115418E-03
               2.3459526263311919E-03
              -1.0041293966158649E-02
               5.0017676248085008E-03
               2.1031263131785008E-02
               1.6283349750902626E-03
              -2.0913414668869757E-03
              -1.4133395909212731E-02
              -1.4932526067122380E-03
               2.1317295705372981E-03
              -3.7130105183719956E-04
              -1.0065112317377500E-02
               2.0061218139453239E-03
               3.8852487156558137E-03
               6.1893808572759008E-03
              -9.0056258095062933E-03
               2.0590325048798819E-02
              -3.7788269430579129E-03
               2.7927031517547829E-03
               1.1467037182975807E-03
              -1.6501837823698481E-03
               9.6269391189929519E-03
               3.0796136970007576E-03
              -8.1826144726470217E-03
               3.3548046866584691E-03
               5.4660146343647774E-04
               4.0052060142360879E-03
              -9.4119644827048172E-03
               1.2690022503734279E-03
              -8.0100821831641713E-03
              -8.0465379929554222E-03
               4.3989475914096151E-03
               8.1295109373498431E-03
               7.5210336363182664E-04
               5.1563172519326810E-03
              -6.5762089887277378E-04
              -1.3477774403588879E-03
              -9.7570403524388661E-03
               4.7722066702202675E-03
              -4.0305956195277708E-03
              -1.0923684678496909E-03
               1.4469164546160531E-02
               9.7048796375524468E-04
              -3.9835798377926140E-03
               2.4500056943073116E-03
              -6.1215040114848624E-03
               2.6769157458515136E-03
               6.9165974081311548E-03
              -3.2772594895255926E-03
              -7.0364351310807467E-03
               9.1348625165621027E-03
               5.9668274362610664E-03
              -1.5585364519369361E-02
               6.4567999062500594E-03
               4.2451906811117723E-03
               8.4115675147537951E-03
               7.0888528040972199E-03
              -4.2101564565821146E-03
              -1.6761799726151495E-03
               6.0358594416609112E-03
              -9.4224821204920775E-03
              -2.0169432569242286E-03
               3.6340813432987639E-03
               9.2058440634342755E-04
              -3.4664006494497155E-03
               5.1314361761451927E-03
              -3.8498643254943226E-03
               5.5598932277198766E-03
              -1.2069947233765406E-02
               6.2640914055560482E-03
               9.5117503034062071E-04
              -1.0293571251006025E-03
              -5.2964269471459449E-03
              -6.3717022688400994E-03
               2.7578394841050063E-03
              -2.5041546917872414E-03
               3.3389686145100859E-03
              -3.3425709818799844E-03
               1.6952484354447524E-02
              -4.9841759566126654E-03
              -6.9588346230920950E-03
              -7.7371628789043093E-04
               5.6219343510373106E-03
               1.0529221756460752E-02
               3.1143689724438556E-03
              -5.1655263176341518E-03
              -1.6764583529777968E-02
               7.3660488414800948E-03
              -9.8522985517796946E-04
              -5.8031385748280612E-03
               1.0123240645540106E-02
              -1.8524155410055280E-03
              -1.4273006920577072E-03
               5.2632063739506338E-03
              -1.9796189491705844E-03
               1.7566795781761750E-03
              -1.0013527756352813E-02
              -8.9140480845863370E-03
              -7.0370594275116370E-04
              -4.0064684586288792E-04
               8.8530233587041148E-03
               1.1031455885502341E-02
               2.7626813783303583E-03
              -2.0568103120855611E-02
              -6.3125198519917661E-03
               1.3361830879790664E-02
              -4.5516304662545160E-03
              -3.5176593836994674E-03
               1.9669406498849453E-03
              -5.4240927719994090E-03
              -4.1529237907425237E-03
               1.3078972651045034E-03
              -7.8688443744155106E-03
               2.6866008091360571E-03
               4.0475850240521910E-03
               8.5548081117155974E-03
              -3.6843923754764458E-03
               1.8696845696245282E-04
               7.1458694844494857E-03
              -2.0167092715267659E-02
               1.1402560211924158E-02
               8.9194916634473894E-04
              -4.2607804694705237E-03
              -2.5487407971747599E-04
              -1.9377867832370221E-03
              -3.2232640035390064E-04
               3.6860585029201815E-03
               8.6202987295193949E-05
              -1.2173756721939681E-02
               8.5808232719895572E-03
               9.7355597906837454E-03
              -8.2700239804537924E-03
              -7.5127598342569039E-03
               2.5515231355608442E-03
              -4.6045585652593575E-03
              -4.7592144157958252E-03
              -1.7674132993829403E-03
              -2.1287113362872903E-03
               1.7128075399702659E-02
              -4.3315756113741595E-03
              -8.1072443467278509E-03
              -8.7998916009390370E-04
              -4.4909695377335071E-03
              -1.0697111731443186E-03
              -2.1516537917390054E-03
              -1.9832627040556805E-04
               1.3184837750227198E-02
              -7.8798174846015177E-03
               1.0781063410806851E-02
              -6.1642607333906281E-03
               5.5570331005475012E-03
              -2.5058732789158054E-03
              -1.5405387239729718E-02
               9.6915870954031036E-03
               3.1531568548186129E-03
              -1.7372560425316583E-02
              -3.5757720185507109E-03
               8.0397597267806468E-04
              -1.3354659930582048E-03
               1.7150603615539991E-02
              -2.7798912607041098E-03
               1.5283359945716011E-03
               2.5003365764007519E-03
              -8.4547065185973944E-06
               4.6148346630017281E-03
              -3.1600409439732574E-03
              -1.2781781992760371E-02
              -1.6797154285955965E-03
               1.3741052868577687E-02
              -5.1431303761042841E-03
              -6.9231829053052339E-05
               4.0613534055724014E-03
              -2.6261736859846239E-04
              -2.8861341322140447E-03
               1.1610910755082261E-02
               7.2771036050853404E-03
              -5.3842008198402404E-03
              -8.2868775027766066E-03
              -4.2330995306205676E-04
              -3.8332778136385766E-03
               2.6938396971749995E-03
               3.1213682781721401E-03
               6.5127083320940153E-03
              -4.2217707942354384E-03
               7.7804431780731397E-04
               2.5447997463506396E-03
               6.9074773111066218E-03
              -1.1803737864729394E-02
              -7.3120452501452418E-03
              -6.5267850713446093E-03
               6.3429593475570929E-03
              -1.2044420062848715E-03
               7.7189674465170059E-03
              -3.6719751243221395E-03
               1.5807425530387175E-02
              -2.1533176591646126E-02
               2.1644150837939805E-02
               2.2365995884202645E-03
               1.5627980478129353E-03
               6.6089715807995855E-05
               5.2457477749871702E-03
              -7.7362962659275961E-03
              -1.6901239575603728E-04
              -5.4730833939382970E-03
               6.8227653315818112E-04
               7.6778376344753636E-03
              -1.9251710890741140E-03
              -4.6100611071578992E-03
              -9.4759039278186487E-04
               1.1068826966196410E-02
               3.1443007368594242E-03
               2.1936949784515068E-03
              -2.8381323785951117E-02
               2.4086239902892031E-02
              -5.9477836081350127E-03
               7.0072442048554834E-03
              -7.5702560104271253E-03
               3.0620114192667471E-04
               7.7672330979850403E-03
              -5.7829380898601138E-03
              -3.8640846109025189E-03
               4.7396278102545498E-03
              -2.1935979432517654E-04
              -1.0515115967053429E-02
              -2.1883289868502684E-03
              -6.9843104552966241E-04
              -3.8102955866556789E-03
               1.4658589699070860E-02
              -1.9054356085717696E-03
              -6.7302527663828850E-03
               1.8194729751839175E-03
               1.1025499233735137E-02
              -1.2248532892417391E-02
              -7.9919922384983787E-04
              -5.2021938602076039E-03
               3.8902808082430756E-04
              -1.1054705419850703E-02
               3.7061260660870032E-03
               7.7852346835183576E-03
               6.9713100618120066E-04
               8.5578269997652508E-03
              -1.1025699673524510E-02
              -3.5203605673868321E-03
              -1.1998231089473538E-03
              -2.3535129013228691E-03
               1.6268486242893874E-02
              -6.7876721164374324E-03
              -6.4895964308952937E-03
              -3.7154166162771795E-03
               1.4822226391271157E-02
               1.5112579109685257E-03
               1.0105347825942629E-02
               1.5432445148863742E-03
               3.5047621729880642E-03
              -7.6503876030204650E-03
               1.1888568788468120E-03
               1.1512797240650833E-02
              -1.4186377465111245E-02
              -1.4714340971916534E-02
               1.6632880121323936E-02
              -6.0977016191233564E-03
               1.0805186833413191E-02
               6.0179305910297077E-04
               3.7915794867411502E-03
              -3.7563823159545242E-03
              -1.0749497610486830E-03
              -1.5833772963276844E-03
              -1.4479085886011205E-02
               6.9038925101963869E-03
              -3.1267882522970462E-03
               5.4482810082859380E-03
               5.1946715667561833E-03
               1.2927488716668468E-02
               1.6243981779262685E-03
              -1.2645508162640593E-02
               1.1948831829379938E-02
               3.6875748063795706E-03
              -8.0159306932442165E-03
               3.1391712170247173E-03
              -7.0879629300599411E-03
              -9.1524151060382692E-04
              -5.0441098170461553E-03
               7.0322097338263107E-04
               8.3112476733159749E-04
               9.4212753343043860E-03
               2.7903204935202778E-03
               1.0047347226187077E-03
               4.4839046387574015E-03
              -7.6841502831262332E-03
              -2.7502678201997365E-03
              -1.5259503733563676E-02
               1.3895584653405083E-02
               3.6777830790132430E-03
              -8.4486324914630293E-03
              -1.3146530851477272E-02
               1.5518535262289307E-02
               2.5471464999548389E-03
              -4.2429880503272403E-03
              -1.1495718511603874E-02
              -5.0295831804891148E-03
              -3.5557034437675634E-03
               1.7351041790123065E-02
               1.1184748999064331E-02
              -5.4566749648401235E-03
              -1.1509183511696584E-02
              -3.8776393459292015E-03
               2.4372900095562581E-03
              -3.3243804811052347E-03
               4.2009141403996477E-03
               9.2607074055277398E-03
              -4.4561826637678865E-03
              -1.0782166256239002E-03
               5.6793258317732196E-03
              -8.8006951087997148E-03
              -2.8667378182834647E-03
               6.2911758749065287E-03
               1.4010473090528238E-03
              -1.6742097289498107E-03
               2.0305249537727978E-02
              -6.0745105900243922E-03
              -2.0322308725413647E-02
               8.2403644625857961E-03
               2.1017183874577224E-03
              -1.1611410154799180E-03
              -4.7818071206391409E-03
              -5.1679376764976936E-04
              -9.0055387606493877E-03
               1.9210654754799758E-02
              -2.2366541932500963E-03
              -7.0517600158453049E-03
              -2.3859892528899675E-03
               1.0912661355406558E-03
              -7.2435555843906544E-03
               8.6321257819924196E-03
               4.5765378210227206E-03
              -2.8605904708774308E-02
               1.2789162864599447E-02
               7.2661648251609945E-03
              -7.5395037129445241E-03
               6.5087292780775224E-03
               2.1296975000437722E-02
              -3.5954213843126181E-04
               6.7696246759884624E-03
               5.2701249814392235E-03
              -6.6691102126115414E-04
               2.9988537350873197E-03
               7.4453778839246327E-04
               2.0882649094656649E-03
              -1.2753076874018100E-02
               6.3182585956800966E-03
              -7.0442253882699313E-03
              -1.8404386262281476E-04
               3.4256304692697982E-03
              -2.7825656434920286E-03
               4.8982179329364034E-05
               4.4045194437362465E-03
               8.4957029335406328E-04
              -2.5549327903056319E-03
               2.1102482012579069E-03
               7.7480000787712373E-04
               1.8901006608777610E-03
               1.3837491925217671E-03
              -1.0181876392457998E-02
               6.4128522894946662E-03
              -7.1254062415636431E-03
               4.1354901434478668E-03
               9.0012901848733843E-03
              -9.7776123292850261E-03
              -4.5163880619151359E-03
              -7.0462536639013511E-03
               6.8800950884579815E-03
              -1.3996536751259314E-02
              -4.0467761894396560E-03
               1.1029325093114150E-02
              -7.4375849222626860E-03
               9.2452446095923277E-03
              -9.4087213150581203E-03
              -1.4358264143421503E-02
              -1.9690739253903217E-03
               5.2988131520272349E-03
              -9.5618484865548706E-03
              -7.3931265329247320E-03
               4.1251141707308939E-03
               6.9050429194356415E-03
               1.2799204263601366E-02
              -6.7390665088142426E-03
              -4.8389287643879472E-03
              -6.4764485068637976E-03
               3.0668478468367641E-03
               7.5101051465118031E-03
              -1.1907890167449938E-02
              -8.1067094520774798E-03
               2.1969408355635052E-02
               4.3337489910565668E-03
              -1.5670567572656443E-02
              -7.0650861281129820E-03
               4.3565494616946742E-03
              -3.2635649422660669E-03
               4.1268390158364079E-03
              -1.1560882102936118E-04
              -6.1008492656322512E-04
               7.1893048316936398E-03
              -1.1596256076264019E-02
               3.3612545127700406E-03
              -4.3619934437899551E-03
               1.2587931546499372E-02
               2.1197021761045305E-03
               6.9714825094531656E-03
               2.5504470105508969E-05
              -1.0367729712027838E-03
              -6.7055908140765544E-03
               7.4867889382954633E-03
               8.3093398138868943E-03
               2.9787017718558152E-03
              -3.2527803971055731E-03
               6.3159978779522407E-04
              -6.3200231713502440E-03
               5.8498023791233754E-03
               1.9256145866128108E-03
               9.7842897659908314E-03
              -7.2036783312856879E-03
              -2.6641026208806466E-03
              -3.1652935289457774E-03
              -2.3299879889925107E-03
              -3.5538966636171850E-03
              -1.7676200443780461E-03
              -1.4722983953814796E-03
               3.3289543915233735E-03
               8.0141579977199996E-03
               4.6945759527032942E-03
              -1.3080909090189746E-02
               1.5149651571548697E-03
               3.6592720624366792E-04
               1.8524460276753705E-03
               1.2272769176893750E-03
               7.3575590286366786E-03
               7.6431205903119948E-04
               1.8786312489700860E-03
              -1.0334399268964248E-02
              -6.9986456274939981E-03
               4.9203402211959587E-03
              -9.7367449942963018E-03
               1.9009774208557063E-03
               8.1632661169614169E-04
              -2.1279757013308313E-03
               7.9487265723428421E-04
              -1.3802916098139527E-03
               7.5896931007904470E-03
              -3.1013520775156076E-03
              -2.7424754413953433E-03
               1.3559840110386990E-03
              -1.0664547295406183E-03
              -6.5927878806954273E-03
              -4.4662671855756628E-03
               7.6043789754497160E-03
               5.1499733085440180E-03
               2.9276571671030401E-04
              -1.1723877943814048E-02
              -1.3032676126589066E-02
               1.5229913626136370E-02
               3.9044418277007545E-03
               5.9627903760673959E-03
              -3.8288685431150005E-03
              -1.0784410438275360E-02
               5.1426151324030006E-03
              -1.7380968046278973E-03
              -1.3259501840971605E-02
              -3.4845398891518243E-03
              -9.8886867680607910E-03
               1.8245577062380430E-03
              -2.3331628792984433E-03
               1.1671502921918497E-02
               5.2024921826440591E-03
              -8.0469859012178430E-04
              -8.4078607891121034E-03
              -1.8982339082229140E-04
               1.1904052776421684E-03
               2.1790004731004316E-03
               2.0322957076978820E-03
               5.0206533272016303E-03
              -5.3610252221632125E-03
               8.8098894192550105E-03
               7.2750316757926549E-03
               9.1167895804813808E-04
              -2.0620234076147133E-03
               1.7022064314882077E-04
              -2.0526251222875891E-03
              -5.5525840881530180E-04
               5.6995627596534513E-03
               1.4310357960117554E-02
              -1.1829429391780947E-02
              -1.1931763179439279E-02
              -5.5673486917030696E-03
               1.1260410024014064E-02
              -2.5334418740354230E-03
               2.2284125661310877E-03
               1.6528098225950005E-04
              -8.8574676264427908E-03
               1.1525877812624371E-02
              -2.2130674146914942E-03
              -3.5882267606151359E-03
               1.2532352853389505E-02
               6.2588862275273979E-03
              -4.8597795743061749E-04
               7.3337346689878709E-03
              -5.6448227262853798E-03
              -1.1955292939553082E-02
               3.5625350040131881E-03
              -4.1605021920529247E-03
               1.8912145218011667E-03
              -2.0200594804672791E-03
              -3.0137361605980318E-03
         &END THERMOSTAT_ENERGY
         &RNG_INIT
Wiener process for Thermostat # 1        1 F T T   3.7280401166127353E-01        2396824340.0        1285798124.0        1970812289.0        4262378425.0        2500496477.0        3105761546.0             12345.0             12345.0             12345.0             12345.0             12345.0             12345.0             12345.0             12345.0             12345.0             12345.0             12345.0             12345.0
Wiener process for Thermostat # 2        1 F T T  -2.8031459711754392E-01        1517340215.0         764337745.0        1777988352.0        1272471177.0        3093987526.0        2495380513.0        3692455944.0        1366884236.0        2968912127.0         335948734.0        4161675175.0         475798818.0        3692455944.0        1366884236.0        2968912127.0         335948734.0        4161675175.0         475798818.0
Wiener process for Thermostat # 3        1 F T T   7.0414863813957229E-01        1874984675.0        3540139467.0        3102430019.0        1608426380.0         643336117.0        1230365417.0        1015873554.0        1310354410.0        2249465273.0         994084013.0        2912484720.0        3876682925.0        1015873554.0        1310354410.0        2249465273.0         994084013.0        2912484720.0        3876682925.0
Wiener process for Thermostat # 4        1 F T T   2.2606224243119818E-01        3416187057.0        1637601412.0         393440280.0        2948182120.0        3407482107.0        2343296956.0        2338701263.0        1119171942.0        2570676563.0         317077452.0        3194180850.0         618832124.0        2338701263.0        1119171942.0        2570676563.0         317077452.0        3194180850.0         618832124.0
Wiener process for Thermostat # 5        1 F T T  -1.0267294306732384E+00         315072143.0        4137263975.0        4196656129.0        1282237791.0        3639735469.0        1937530485.0        1597262096.0        3906379055.0        3312112953.0        1016013135.0        4099474108.0         275305423.0        1597262096.0        3906379055.0        3312112953.0        1016013135.0        4099474108.0         275305423.0
Wiener process for Thermostat # 6        1 F T T   9.2624835653208748E-01        3222219212.0        3105331301.0        2094058484.0        2511776071.0        3719186732.0        3505559269.0          97147054.0        3131372450.0         829345164.0        3691032523.0        3006063034.0        4259826321.0          97147054.0        3131372450.0         829345164.0        3691032523.0        3006063034.0        4259826321.0
Wiener process for Thermostat # 7        1 F T T  -4.6721006089689310E-01        2921304001.0        3534845789.0         764942181.0        2980414860.0        2807768180.0         274774080.0         796079799.0        2105258207.0         955365076.0        2923159030.0        4116632677.0        3067683584.0         796079799.0        2105258207.0         955365076.0        2923159030.0        4116632677.0        3067683584.0
Wiener process for Thermostat # 8        1 F T T   4.8809173354813140E-01        3327178806.0        3682317356.0        2663069382.0         319044460.0        3975670735.0         562702070.0        3281794178.0        2616230133.0        1457051261.0        2762791137.0        2480527362.0        2282316169.0        3281794178.0        2616230133.0        1457051261.0        2762791137.0        2480527362.0        2282316169.0
Wiener process for Thermostat # 9        1 F T T  -8.1805399140306756E-01         433221438.0         349071730.0        2033385903.0        2639944804.0        3988392127.0        3801627598.0        3777646647.0        1837464056.0        4204654757.0         664239048.0        4190510072.0        2959195122.0        3777646647.0        1837464056.0        4204654757.0         664239048.0        4190510072.0        2959195122.0
Wiener process for Thermostat # 10       1 F T T  -2.7062828385550008E-01        2290601073.0        1666814614.0        3289919364.0        2930088785.0        1500929831.0        1860303943.0        4215590817.0        3862461878.0        1087200967.0        1544910132.0         936383720.0        1611370123.0        4215590817.0        3862461878.0        1087200967.0        1544910132.0         936383720.0        1611370123.0
Wiener process for Thermostat # 11       1 F T T   6.8652417552969780E-01        2151060734.0         580174056.0        1748210725.0         399674445.0        1879492130.0        2741776977.0        1683636369.0         362165168.0         814316280.0         869382050.0         980203903.0        2062101717.0        1683636369.0         362165168.0         814316280.0         869382050.0         980203903.0        2062101717.0
Wiener process for Thermostat # 12       1 F T T   1.2985463821691814E+00        3478492904.0        1830493925.0          17364685.0        2058676739.0        2676153401.0        4087350495.0         272317999.0         166758548.0         310112982.0         201045826.0        1680231254.0         118290799.0         272317999.0         166758548.0         310112982.0         201045826.0        1680231254.0         118290799.0
Wiener process for Thermostat # 13       1 F T T   2.0061703114922356E+00        2097018817.0        1300727704.0         367347443.0         582130443.0        2824054692.0        3111690587.0        2245755202.0        1652682525.0        2865544364.0         721509566.0         209733568.0         592362218.0        2245755202.0        1652682525.0        2865544364.0         721509566.0         209733568.0         592362218.0