 # Version information for this restart file 
 # current date 2024-11-21 18:51:57.626
 # current working dir /scratch/work/courses/CHEM-GA-2671-2024fa/students/wx2237/comp-lab-class-2024/Week12-IntroAIMD/Runs/Water
 # Program compiled at                              Sat Dec 12 18:27:15 EST 2020
 # Program compiled on                                         cs001.nyu.cluster
 # Program compiled for                                                nyu-intel
 # Source code revision number                                       git:8c64c6e
 &GLOBAL
   PRINT_LEVEL  LOW
   PROJECT_NAME water_aimd_1ps_every0.5fs
   RUN_TYPE  MD
   WALLTIME 21600
 &END GLOBAL
 &MOTION
   &GEO_OPT
     OPTIMIZER  BFGS
     MAX_ITER  100
     MAX_DR     3.0000000000000001E-03
     &BFGS
     &END BFGS
   &END GEO_OPT
   &MD
     ENSEMBLE  NVT
     STEPS  2000
     TIMESTEP     4.9999999999999994E-01
     STEP_START_VAL  2000
     TIME_START_VAL     9.9999999999998226E+02
     ECONS_START_VAL    -1.1023558357480233E+03
     TEMPERATURE     3.0000000000000000E+02
     &THERMOSTAT
       TYPE  GLE
       REGION  MASSIVE
       &GLE
         NDIM  5
         A_SCALE     1.0000000000000000E+00
         A_LIST     1.8595758612559999E+02    2.7263853498399998E-01    1.1526100454610001E+01   -3.6414578262600003E+01 \
             2.3173375816020001E+02
         A_LIST    -2.7809524712060002E-01    8.5951591808710006E-05    7.2189048017650004E-01   -1.9844539343859999E-01 \
             4.2409257583420001E-01
         A_LIST    -1.4825808131210000E+01   -7.2189048017650004E-01    1.3590902121280000E+00    5.1498896280349999E+00 \
            -9.9949268450990001E+00
         A_LIST    -1.0372189126880000E+01    1.9844539343859999E-01   -5.1498896280349999E+00    2.6661910891169999E+01 \
             1.1507715495310000E+01
         A_LIST     2.1801346360420001E+02   -4.2409257583420001E-01    9.9949268450990001E+00   -1.1507715495310000E+01 \
             3.0958394565589998E+02
         &THERMOSTAT_ENERGY
              -1.5346364248963594E-03
              -1.9895957732904692E-03
              -7.4214712864280373E-04
               8.0161720189435640E-03
              -1.2282764585083523E-02
               1.8810308644345035E-03
              -8.0312382385819617E-04
              -6.2015281363454614E-03
               1.8284901437105917E-02
               3.0757732473104807E-03
               1.2706347768467838E-02
               1.0817132434260517E-03
              -7.4450885547790628E-03
              -6.3106740674922727E-03
              -3.0988082655518195E-04
              -8.0692548860593644E-03
               1.8142458105038180E-02
              -2.2918472418704122E-03
               6.5391820927781803E-03
              -5.5122794518813146E-03
              -3.0898948568897386E-03
               4.5878964667689119E-03
              -9.0056362296200409E-03
              -4.6483441095820765E-03
               3.0708923240301265E-03
               2.4625413557605607E-03
               3.4669350622381977E-03
               1.7228776725798651E-03
               1.1372211938255798E-02
               2.3345389569087898E-03
               2.3674667551328446E-03
              -3.4796462160255779E-03
               3.1776874231468498E-03
               2.7581610394552757E-03
              -1.3582943283220265E-02
               1.4872306966795890E-02
               2.9923566210491213E-03
              -3.6202176325273155E-03
               1.5018839569039398E-03
               7.0561241424969365E-03
              -5.5059626423643671E-03
              -8.0059599235945376E-03
               8.8647613821980029E-03
               4.4899464632128889E-03
              -1.8416912817649745E-03
               2.8264109053362301E-03
              -9.8531445420329666E-04
               7.3465322079099889E-03
               5.7507504357432312E-03
               2.0364919582646873E-03
              -1.8835846168456048E-03
               2.8703918811274951E-03
              -7.2923202410977370E-03
              -6.1648371626147995E-04
              -6.0477010006844733E-03
               4.3584036314200164E-03
              -3.5335559487395924E-03
              -4.0762788339969392E-03
              -1.0123247629628697E-03
               1.9181507213012587E-02
               2.5301553998926091E-03
              -8.8357236066586801E-03
               1.6866440031017688E-02
              -5.0325520095833923E-03
               5.0647360639363634E-03
               1.3460925761957028E-03
              -8.6678192479459817E-03
               5.2656985618980585E-03
               2.1585171220738962E-02
               1.6617442185108799E-03
              -2.2303720566476865E-03
              -1.4129648291584184E-02
              -1.6613653830135128E-03
               2.3791313615393324E-03
              -3.1766920851821379E-04
              -1.0492716638257535E-02
               2.0307615284257730E-03
               3.9132397656748055E-03
               5.6211255467738027E-03
              -9.4651013094369345E-03
               1.9853328472393031E-02
              -3.8416880860156319E-03
               2.8123919231004273E-03
               1.5204930912366070E-03
              -2.0995916904073563E-03
               9.8321504927791157E-03
               3.2744594445534604E-03
              -7.8298867500046030E-03
               3.1248446987364154E-03
               1.5219167604432725E-03
               3.5486715887609460E-03
              -9.8704880886505298E-03
               8.8658654338741067E-04
              -7.7118247577640164E-03
              -7.5304693508343517E-03
               3.9415054877933722E-03
               1.0992164515552048E-02
               6.2396848467671036E-04
               5.0517041252118892E-03
              -4.8016197660974088E-04
              -1.4685770293617036E-03
              -9.6374622094327258E-03
               4.6722650662624531E-03
              -3.6314341090765080E-03
              -3.4849181526765691E-04
               1.4449650893211175E-02
               8.9072515560018810E-04
              -3.4362454179536453E-03
               2.4172666517954990E-03
              -6.3839678774929819E-03
               3.5187129609249935E-03
               6.5801669556743800E-03
              -3.6641543404969199E-03
              -6.6603856025970248E-03
               8.1639885330538307E-03
               6.1093039220496397E-03
              -1.5704438191136563E-02
               5.5793719464973732E-03
               4.3091016503760326E-03
               8.1867005501280454E-03
               9.1257261646415632E-03
              -4.2599504179232769E-03
              -1.7068091934157252E-03
               5.8639411488697092E-03
              -9.3754461075868777E-03
              -2.3208983816670726E-03
               4.0036579314211233E-03
               6.7768096211202856E-04
              -3.8042985668611607E-03
               5.3032365484829988E-03
              -3.6811442854005985E-03
               5.3828217698346330E-03
              -1.2226946513823882E-02
               6.1343067103090902E-03
              -1.8432070983721589E-04
              -9.7781191921239715E-05
              -3.7854267122887308E-03
              -5.7434752168106385E-03
               2.8959256750396094E-03
              -2.6590994619798440E-03
               2.1164224053754560E-03
              -3.6425080009683899E-03
               1.6150631307122378E-02
              -4.7477535905900295E-03
              -7.3458099424342426E-03
              -4.9605119206474449E-04
               6.0273758159953023E-03
               1.0375314665055597E-02
               3.1120831898751354E-03
              -4.4437617978412116E-03
              -1.6865732143305494E-02
               7.7083284868499176E-03
              -5.4904911776635225E-04
              -6.5708679802569062E-03
               1.0168097001062649E-02
              -1.3688367821907466E-03
              -1.5143095050780310E-03
               4.5186201510218002E-03
              -8.3896156560324961E-04
               2.0696169157378040E-03
              -1.0146682625655561E-02
              -8.6262268313486590E-03
              -7.8333616591690308E-04
               1.3676664199047594E-04
               7.6132945577266666E-03
               1.1606533396794867E-02
               1.9548752194393196E-03
              -1.9953274665937028E-02
              -6.5908279771797482E-03
               1.3408202318524107E-02
              -3.2923908695232070E-03
              -3.2355671530030902E-03
               1.0931012056263577E-03
              -5.2217929611314455E-03
              -4.1576866593988071E-03
               2.4259606882893262E-03
              -7.8338897942113878E-03
               2.0724468018361087E-03
               3.7159745781137937E-03
               8.3653198290883218E-03
              -2.8186443647489085E-03
               5.0485928798118011E-04
               7.0201119093125349E-03
              -1.9138300769760003E-02
               1.1334964830462554E-02
               1.9881340449223826E-03
              -4.5842880821180439E-03
               1.4883364397767245E-04
              -1.8926299010226348E-03
              -4.9780791268487978E-04
               4.0828231448791401E-03
               2.7126845319377002E-04
              -1.2048023096800866E-02
               7.9961971186379467E-03
               9.2746048382609265E-03
              -8.1473333053939615E-03
              -7.1397586581484025E-03
               1.7079346630651925E-03
              -4.5462110217949899E-03
              -4.7926623377511001E-03
              -2.0048146935387479E-03
              -2.1251776520381373E-03
               1.6743931437003094E-02
              -4.3663122220905784E-03
              -6.1476959486818491E-03
              -6.0506368627218825E-04
              -3.6001579989688504E-03
              -1.1463951343256998E-03
              -1.6772173503472173E-03
              -4.4449142388280319E-04
               1.3695678047223511E-02
              -7.7413359906157208E-03
               1.0440773010996640E-02
              -5.9605870676510599E-03
               5.9632686313310012E-03
              -2.5810673713069364E-03
              -1.4225488267056019E-02
               9.7848382451877648E-03
               2.9889165727203450E-03
              -1.7223361758107802E-02
              -4.1525711807913037E-03
               7.0914586417158282E-04
              -1.2740504968317725E-04
               1.7705333843886045E-02
              -2.6232266708818269E-03
               1.5391614820755724E-03
               2.6631707188219567E-03
               8.2294928453977760E-04
               5.3470388501912474E-03
              -3.0242950357156320E-03
              -1.2416571326040291E-02
              -1.5920166342772871E-03
               1.4286892746179296E-02
              -5.7350807271566023E-03
               1.6589694556953735E-03
               4.6176349513964649E-03
               4.3979890101563442E-04
              -2.8355072474792282E-03
               1.2738011470849870E-02
               7.2489165626204036E-03
              -5.3961136310398429E-03
              -8.3738199175274926E-03
              -1.1710671745621695E-04
              -2.4520069813498361E-03
               3.7606542430786761E-03
               3.2158210625098443E-03
               6.0433140754217810E-03
              -3.8243611507955224E-03
               7.7387981448038699E-04
               2.5224749019470247E-03
               6.7008811200653488E-03
              -1.2128843420086128E-02
              -7.0255205954779278E-03
              -6.5150227548984490E-03
               5.6531570678747325E-03
              -3.9907383794785689E-04
               7.7446592709896050E-03
              -3.7816918342473819E-03
               1.6002184771198625E-02
              -2.1793135050487199E-02
               2.1287102727868542E-02
               2.0457338385619760E-03
               2.0743300762259610E-03
              -1.5118286966657370E-03
               4.2775059766254593E-03
              -6.6406548368842157E-03
               2.1926065364050596E-04
              -5.7222450230301428E-03
               5.9822223681840737E-04
               7.6525911903884657E-03
              -1.9285481841225330E-03
              -4.7493200609956222E-03
              -1.0641852012669647E-03
               1.1495818930050370E-02
               4.1288399514095783E-03
               2.1975557870170951E-03
              -2.8051430717084325E-02
               2.4086038363900431E-02
              -5.8983800375077148E-03
               7.4308472366003426E-03
              -7.6547572079720995E-03
               1.7768895986613508E-03
               7.8527880954300643E-03
              -3.5125064205025055E-03
              -3.1894783347843807E-03
               4.9561452590864835E-03
              -1.9292310392457850E-03
              -1.0637182364235906E-02
              -2.4104866465192707E-03
              -9.4680513694435494E-04
              -2.9528012423659443E-03
               1.4767201257450848E-02
              -2.2287024656719454E-03
              -7.7294137003459064E-03
               2.1273739428650830E-03
               1.1355778132002742E-02
              -1.3129622644238200E-02
              -1.5810027498847205E-03
              -4.0693494197099733E-03
               3.4370724101384544E-04
              -1.1055380987853233E-02
               3.7231782208174856E-03
               8.0243502083822173E-03
               1.0501677734815074E-03
               8.4888557156672356E-03
              -1.1369207022131393E-02
              -2.4051839050431966E-03
              -1.3756671878311895E-03
              -2.3593486926301102E-03
               1.6471125262761760E-02
              -7.1131693938777871E-03
              -6.4654389303360491E-03
              -4.3105887081415079E-03
               1.3212510487346174E-02
               8.4597133766423039E-04
               1.2152592549938456E-02
               2.0266838212349442E-03
               3.4859401698325936E-03
              -7.6526262972758932E-03
               1.2667930471642827E-03
               1.2106813083396390E-02
              -1.5022234008461463E-02
              -1.4919724146511508E-02
               1.6791426169964065E-02
              -7.0313370951587059E-03
               1.0277014473229989E-02
               8.8412098174332201E-04
               4.2124994998496866E-03
              -3.4391247701598157E-03
              -1.0502883250451036E-03
              -1.9772178752659893E-03
              -1.6006139376629470E-02
               7.0160848259675024E-03
              -2.9438980210857884E-03
               5.6479933450986793E-03
               5.0952445371412556E-03
               1.3436244574190261E-02
               1.2937091011742882E-03
              -1.3554722616151180E-02
               1.1714339480143837E-02
               2.5509461257311669E-03
              -8.0203747553117578E-03
               2.6916547386656750E-03
              -7.2047995343476629E-03
              -6.9735673184684994E-04
              -5.1657026778496517E-03
               4.8346284240019977E-05
               1.0944445091871512E-03
               9.7325642034219242E-03
               2.7912673996776782E-03
               1.4906530965604818E-03
               4.3754852787519947E-03
              -8.8977572281829596E-03
              -2.7083131630416097E-03
              -1.5321065032406289E-02
               1.4617839458812952E-02
               3.7125887884231061E-03
              -8.3214651020646815E-03
              -1.3308708462250803E-02
               1.5450021237535144E-02
               2.3045363143732360E-03
              -4.1052526855929160E-03
              -1.0837795569152446E-02
              -5.0863307507427926E-03
              -3.5899672703595879E-03
               1.7112360635318402E-02
               1.1227591555988393E-02
              -5.4744437606905295E-03
              -1.1506147568979061E-02
              -3.9499903433614040E-03
               2.4205143424168864E-03
              -2.5204518868010930E-03
               4.0645604718160498E-03
               8.7859685281428054E-03
              -4.5715699563955367E-03
              -8.5465823504879076E-04
               5.6078642907416171E-03
              -8.7443279714430194E-03
              -2.8566984493632592E-03
               6.1642485228695972E-03
               2.0005305635127290E-03
              -2.2733230996726636E-03
               1.9664380850632344E-02
              -5.8988242374137046E-03
              -2.1550879488614647E-02
               8.4202217616647038E-03
               2.0633744891381616E-03
              -1.0012309693813010E-03
              -5.4324707566432576E-03
              -2.3358713479120299E-04
              -9.2864568573824066E-03
               1.8913709484025654E-02
              -2.1556981310711177E-03
              -7.5781626447182062E-03
              -3.2883217464204353E-03
               1.3305909716052862E-03
              -7.1181322239537645E-03
               8.4884096393568111E-03
               5.8951916087312626E-03
              -2.8991506614402193E-02
               1.1802128857523651E-02
               6.8765972306659871E-03
              -7.7666323088973425E-03
               6.5533714062315741E-03
               2.0858917173419068E-02
              -1.0546961209577789E-04
               7.0489332608077689E-03
               6.4890974153554108E-03
              -7.9976133723271546E-04
               2.9845843183813735E-03
               3.0803350550420488E-04
               1.9901976985962268E-03
              -1.2333944601970884E-02
               6.7111753390766346E-03
              -6.7447161455077287E-03
              -1.9957499361078224E-04
               2.9868136298721927E-03
              -2.3664888727883424E-03
               3.4307548727656434E-05
               4.3397479051477117E-03
               7.4035201346124655E-04
              -3.0248306660832151E-03
               2.3302742253928661E-03
               7.9062184216260748E-04
               2.1003531695024695E-03
               1.7222974950094291E-03
              -1.0244560870586377E-02
               6.2136830409159089E-03
              -6.9685687086086376E-03
               4.1641728806063073E-03
               9.4448744669862715E-03
              -9.7787240512055094E-03
              -4.5452358035207125E-03
              -7.0757024112150383E-03
               6.3074193294304715E-03
              -1.1397060434924864E-02
              -5.3094524332587909E-03
               9.5258917682949640E-03
              -7.5221260945792833E-03
               9.1498410504746216E-03
              -9.1556501815163137E-03
              -1.4788237474439945E-02
              -2.1256166784532245E-03
               5.1257935614743132E-03
              -9.8928493068378680E-03
              -7.5158027647676904E-03
               4.3105797413854341E-03
               6.7174556488411741E-03
               1.2494533244435953E-02
              -6.8510066121957262E-03
              -5.0130600648570969E-03
              -5.9908592033540483E-03
               3.0402348733414154E-03
               7.5815103361262862E-03
              -1.2216259837403617E-02
              -8.0144700752431668E-03
               2.2262422333076411E-02
               4.1163559314650062E-03
              -1.5355174112783958E-02
              -5.9242455409603415E-03
               4.5233133871998210E-03
              -3.3471155428997364E-03
               4.5489623929872210E-03
              -1.9751104891627228E-04
               5.0242207383076364E-04
               7.9158151953885418E-03
              -1.1528207312640997E-02
               2.9790665941129609E-03
              -3.8353979211069086E-03
               1.2490918813875231E-02
               1.5742258892501417E-03
               7.0545672858715186E-03
              -2.2078235697186080E-04
              -8.5095443406530552E-04
              -6.5517494524915945E-03
               7.4778170660716415E-03
               9.0689775618719923E-03
               3.2013625490183591E-03
              -4.6810006343050315E-03
               7.3774675883157956E-04
              -5.3595545398733456E-03
               5.6239816504076688E-03
               8.8526600811591062E-04
               9.9133466877392440E-03
              -7.6953636950091572E-03
              -2.1483919386191546E-03
              -3.2176480999124737E-03
              -1.9956241682189176E-03
              -2.8800634340731806E-03
              -1.5176287309585442E-03
              -1.6228687960277018E-03
               3.6377023576616404E-03
               7.7382351097296572E-03
               5.1576704477291234E-03
              -1.2969752163326902E-02
               1.1791029184920676E-03
               1.8079445540590906E-03
               1.2106165023031883E-03
               1.6089786249358117E-03
               7.4416380476105730E-03
               6.8763530043686768E-04
               2.1844506307938027E-03
              -1.0270213775355143E-02
              -6.8161018658621500E-03
               4.8401811861307547E-03
              -9.1316055305924008E-03
               2.0769062033428828E-03
               8.0211324363854393E-04
              -2.0434918110118720E-03
               8.4551613232334752E-04
              -1.2653459348015022E-03
               7.6588288955252923E-03
              -3.0565702536323176E-03
              -2.7734155891171001E-03
               1.3604846635098353E-03
              -9.3930190629340873E-04
              -6.1067310546362224E-03
              -4.6586112000065018E-03
               7.9528596747937379E-03
               5.1251242338188705E-03
               4.1133291777041987E-04
              -1.2391994348831859E-02
              -1.3184234096886601E-02
               1.5173179301768713E-02
               3.9072060666349951E-03
               5.9462775619080850E-03
              -3.9706438311107742E-03
              -1.0852758443824681E-02
               6.0426455159792291E-03
              -1.1868887493747017E-03
              -1.3093849789642165E-02
              -3.2858778844624772E-03
              -1.0759128653262621E-02
               1.8980808617915256E-03
              -1.6527925184032714E-03
               1.1763496210510403E-02
               5.0613499357761021E-03
               1.6536921146232308E-04
              -8.1954448977517354E-03
              -1.0811549816591125E-03
               8.2986951848497989E-04
               2.7914109899522341E-03
               1.5736993169141607E-03
               5.4904427952083799E-03
              -5.3243435752813890E-03
               9.0638532508802248E-03
               7.5483394031614082E-03
               9.7158410255984175E-04
              -2.3029729166642574E-03
               2.5365082624595790E-04
              -1.0545611818899947E-03
              -1.1062270908910865E-03
               4.8861046263112950E-03
               1.3835182750927606E-02
              -1.2134922722060156E-02
              -1.1874641223696679E-02
              -4.1482023855662466E-03
               1.1182746234832603E-02
              -2.1427857521044199E-03
               2.2389295594632107E-03
              -2.9810464524339777E-04
              -8.5172216950361104E-03
               1.1661723079354130E-02
              -2.3669250014774022E-03
              -4.0836293595247668E-03
               1.2620374724610296E-02
               6.3773911895678888E-03
              -1.2297041398695605E-03
               7.8522877007020254E-03
              -6.2028811880342812E-03
              -1.0705497716670646E-02
               3.8695994842421130E-03
              -1.6150351657937532E-03
               1.9552706305331932E-03
              -2.9659113164439226E-03
              -2.8002803433150210E-03
         &END THERMOSTAT_ENERGY
         &RNG_INIT
Wiener process for Thermostat # 1        1 F T T  -4.3866331554119464E-01        3463026290.0         996283881.0        3077134961.0        1575188103.0         352198642.0        1255594993.0             12345.0             12345.0             12345.0             12345.0             12345.0             12345.0             12345.0             12345.0             12345.0             12345.0             12345.0             12345.0
Wiener process for Thermostat # 2        1 F T T   6.1664168869435698E-01         581397078.0        3867423482.0         327967633.0        1486938113.0          26429212.0        4093174459.0        3692455944.0        1366884236.0        2968912127.0         335948734.0        4161675175.0         475798818.0        3692455944.0        1366884236.0        2968912127.0         335948734.0        4161675175.0         475798818.0
Wiener process for Thermostat # 3        1 F T T   2.0518696979926636E+00        1062843694.0        3278483557.0        2630284801.0         342499437.0         508306288.0         570022504.0        1015873554.0        1310354410.0        2249465273.0         994084013.0        2912484720.0        3876682925.0        1015873554.0        1310354410.0        2249465273.0         994084013.0        2912484720.0        3876682925.0
Wiener process for Thermostat # 4        1 F T T   8.6483655468840070E-01         858988242.0         878260951.0        1341305949.0        1687735708.0        1261279903.0        1615458589.0        2338701263.0        1119171942.0        2570676563.0         317077452.0        3194180850.0         618832124.0        2338701263.0        1119171942.0        2570676563.0         317077452.0        3194180850.0         618832124.0
Wiener process for Thermostat # 5        1 F T T  -7.2623034709222295E-02        3503246388.0        3640749438.0          80160185.0        4050541932.0        1809135917.0         826251710.0        1597262096.0        3906379055.0        3312112953.0        1016013135.0        4099474108.0         275305423.0        1597262096.0        3906379055.0        3312112953.0        1016013135.0        4099474108.0         275305423.0
Wiener process for Thermostat # 6        1 F T T   2.6094790259997280E+00        1648662560.0         298744963.0         276080774.0        3452610735.0        2129471280.0        4132861437.0          97147054.0        3131372450.0         829345164.0        3691032523.0        3006063034.0        4259826321.0          97147054.0        3131372450.0         829345164.0        3691032523.0        3006063034.0        4259826321.0
Wiener process for Thermostat # 7        1 F T T   1.3118545096244869E+00        4025695046.0        1027992126.0        3217973651.0        2155997853.0        1780084567.0        1907814450.0         796079799.0        2105258207.0         955365076.0        2923159030.0        4116632677.0        3067683584.0         796079799.0        2105258207.0         955365076.0        2923159030.0        4116632677.0        3067683584.0
Wiener process for Thermostat # 8        1 F T T   7.1524753302764935E-02        2631328646.0          66904958.0        3191287979.0        3452779318.0        2048731614.0        3759050068.0        3281794178.0        2616230133.0        1457051261.0        2762791137.0        2480527362.0        2282316169.0        3281794178.0        2616230133.0        1457051261.0        2762791137.0        2480527362.0        2282316169.0
Wiener process for Thermostat # 9        1 F T T  -1.0980465140389938E-01        1977246253.0        1903248984.0        3508262652.0        2466127224.0         300284070.0         767034957.0        3777646647.0        1837464056.0        4204654757.0         664239048.0        4190510072.0        2959195122.0        3777646647.0        1837464056.0        4204654757.0         664239048.0        4190510072.0        2959195122.0
Wiener process for Thermostat # 10       1 F T T   1.9081094228418396E+00         405211316.0        3215252316.0        3029076279.0        3899943421.0         886526099.0         586515832.0        4215590817.0        3862461878.0        1087200967.0        1544910132.0         936383720.0        1611370123.0        4215590817.0        3862461878.0        1087200967.0        1544910132.0         936383720.0        1611370123.0
Wiener process for Thermostat # 11       1 F T T  -5.3344054384789541E-01        3450000619.0        1059116059.0        3916567347.0         635813254.0        3901690603.0        3696418470.0        1683636369.0         362165168.0         814316280.0         869382050.0         980203903.0        2062101717.0        1683636369.0         362165168.0         814316280.0         869382050.0         980203903.0        2062101717.0
Wiener process for Thermostat # 12       1 F T T   8.9448207812820613E-01        1696219248.0        1783691089.0        1685873716.0        1285524479.0        2726140602.0        4269630803.0         272317999.0         166758548.0         310112982.0         201045826.0        1680231254.0         118290799.0         272317999.0         166758548.0         310112982.0         201045826.0        1680231254.0         118290799.0
Wiener process for Thermostat # 13       1 F T T  -1.0297203341400047E+00        4019568919.0        3484227797.0         947541978.0        4224885921.0        2127446270.0         502669027.0        2245755202.0        1652682525.0        2865544364.0         721509566.0         209733568.0         592362218.0        2245755202.0        1652682525.0        2865544364.0         721509566.0         209733568.0         592362218.0