 # Version information for this restart file 
 # current date 2024-11-28 09:04:04.091
 # current working dir /scratch/work/courses/CHEM-GA-2671-2024fa/students/wx2237/comp-lab-class-2024/Week12-IntroAIMD/Runs/Proton
 # Program compiled at                              Sat Dec 12 18:27:15 EST 2020
 # Program compiled on                                         cs001.nyu.cluster
 # Program compiled for                                                nyu-intel
 # Source code revision number                                       git:8c64c6e
 &GLOBAL
   PRINT_LEVEL  LOW
   PROJECT_NAME proton_aimd_1ns_every0.5fs
   RUN_TYPE  MD
   WALLTIME 21600
 &END GLOBAL
 &MOTION
   &GEO_OPT
     OPTIMIZER  BFGS
     MAX_ITER  100
     MAX_DR     3.0000000000000001E-03
     &BFGS
     &END BFGS
   &END GEO_OPT
   &MD
     ENSEMBLE  NVT
     STEPS  2000
     TIMESTEP     4.9999999999999994E-01
     STEP_START_VAL  104
     TIME_START_VAL     5.2000000000000036E+01
     ECONS_START_VAL    -1.1027144142478624E+03
     TEMPERATURE     3.0000000000000000E+02
     &THERMOSTAT
       TYPE  GLE
       REGION  MASSIVE
       &GLE
         NDIM  5
         A_SCALE     1.0000000000000000E+00
         A_LIST     1.8595758612559999E+02    2.7263853498399998E-01    1.1526100454610001E+01   -3.6414578262600003E+01 \
             2.3173375816020001E+02
         A_LIST    -2.7809524712060002E-01    8.5951591808710006E-05    7.2189048017650004E-01   -1.9844539343859999E-01 \
             4.2409257583420001E-01
         A_LIST    -1.4825808131210000E+01   -7.2189048017650004E-01    1.3590902121280000E+00    5.1498896280349999E+00 \
            -9.9949268450990001E+00
         A_LIST    -1.0372189126880000E+01    1.9844539343859999E-01   -5.1498896280349999E+00    2.6661910891169999E+01 \
             1.1507715495310000E+01
         A_LIST     2.1801346360420001E+02   -4.2409257583420001E-01    9.9949268450990001E+00   -1.1507715495310000E+01 \
             3.0958394565589998E+02
         &THERMOSTAT_ENERGY
              -4.0269218247571213E-04
              -1.1272430161757936E-04
              -3.4892019402703442E-04
              -1.3682885655229469E-03
              -1.0442451445515531E-03
               3.9688691137859363E-03
              -2.7317731097431294E-03
               3.7717667580566220E-04
               2.6101655315958392E-03
               4.7465341068568480E-04
               3.9544271886450813E-03
              -4.7794535230627602E-04
               3.3294751872874808E-03
               4.5256532014268866E-04
               2.3383611638696455E-03
              -1.7676299501041004E-03
               8.6584530130312727E-04
               1.0856141495482426E-03
               6.9744203657699525E-05
              -4.4362715869950920E-04
              -5.7350857403599986E-04
               2.2802005045797461E-03
              -9.2775525872902805E-04
              -2.0742395458367795E-04
              -4.6573667961961597E-05
              -2.1127024142540939E-03
               6.7478194364697388E-04
               3.9894444428414363E-04
               5.1214501031302657E-04
               2.3531376573095950E-05
               1.4123318391235041E-03
              -1.0470117979989714E-03
               1.0900424193344116E-03
               1.6686428242839795E-03
              -4.2851977908488145E-03
               1.9363650609851579E-03
               4.4993052064851827E-05
              -2.8240720132346640E-04
               1.2308974472624823E-04
              -4.8838863140514808E-04
               4.6403044484672369E-03
              -1.2158374298245286E-03
               3.1721685216564533E-04
               3.2180410980665822E-03
              -2.8603127702577602E-03
               8.7304543478864956E-04
              -6.2783655896322781E-04
              -1.5393991054503379E-04
              -3.2580291480667628E-03
               5.6298507282860990E-04
               7.8662215964381678E-04
              -1.1608010609312251E-03
              -7.3136728549596185E-04
              -1.6564021963077534E-04
              -3.5325849709634039E-03
              -9.1979732403571577E-04
              -1.3840203215757965E-03
               2.2291968847615502E-03
               8.3620399987371680E-04
              -3.8402544007784352E-03
               1.1719650863919644E-03
               4.4340930406887146E-03
              -7.4571125847915413E-04
               1.5038005555256763E-03
              -1.7952554745345921E-03
               8.3847591869797206E-04
              -1.9659795718916877E-03
               3.0986150104855325E-03
              -1.3335364863935109E-03
               1.0180579892613259E-04
              -7.7957545770958943E-04
               1.2514674575439823E-03
              -1.1489971786435541E-03
               3.9881411817285046E-04
               8.2858515898561434E-04
              -3.2335302021150600E-03
               8.0860211480316671E-04
               3.6586810614729413E-03
               3.3849217296218876E-03
               1.2098672234502986E-04
              -1.3824040055575712E-03
              -8.5298097431627993E-04
               7.3390121126104286E-04
              -4.2362396756157679E-04
               2.2461901076134523E-03
              -1.8395206825726801E-03
              -1.2344593654796498E-03
               5.9774426158722507E-04
              -1.7590236502285344E-04
              -1.0291965432131442E-03
               1.4002028111429481E-03
              -9.5265208735405543E-04
               1.8149750313694226E-03
              -2.7945439927638555E-03
              -2.9308971384692526E-03
               2.4629582374090106E-04
               8.8019394071376994E-04
              -1.9223597855975031E-03
               2.8207711066388993E-04
               2.1267362740444223E-03
               4.7358872298320477E-03
               1.2660802332794231E-03
               6.9914622432643687E-04
               1.9121891024775396E-02
               3.9872298707881431E-03
               9.7678480161094722E-03
               1.1344812287876826E-02
               1.1638505773717724E-02
               2.7228791878559648E-03
               1.4003215793392186E-04
               1.0260754468014318E-03
               6.6875082274406609E-04
              -2.1125324165535324E-03
               3.2353441306624462E-04
               9.8028621879080245E-04
               2.9601465269812914E-03
              -8.5757579469098125E-03
               1.0416464202048928E-03
               6.0550541411889423E-05
               1.4480884451861494E-04
              -8.1151948410629446E-05
               7.9625532897896749E-04
               5.5104890006701691E-03
              -4.6766817168413779E-04
              -3.4447084385120026E-03
              -2.4520736348245401E-03
               9.2839319395476004E-04
               2.8150920004786201E-03
              -6.8224313141107865E-04
               1.3435110060602135E-03
              -1.7228992801148462E-03
              -1.6192111821313564E-03
               1.5766741453133264E-03
              -3.0945767268420583E-03
              -3.7759160740350096E-04
               1.4135362149043586E-03
              -1.3414090653513665E-03
              -1.0491852395777530E-03
               5.8336640746073181E-04
               1.2750249720303805E-03
               1.8197033134848451E-03
               2.2808216763621032E-03
              -1.9620844583408527E-04
               1.6485399678853953E-06
              -5.2369222802525067E-04
               1.4719464119934309E-03
               1.8379377594925296E-03
               8.1440534243597257E-06
              -1.3259669897579104E-03
              -7.5929462313907288E-05
              -3.0085649411273782E-04
              -5.6803571016039050E-04
              -9.9625041374052444E-04
               6.3180129548534721E-04
              -7.3889983986504437E-04
              -3.0388602463579634E-04
               1.0078206828393664E-04
              -3.5270651913220640E-04
              -1.9782050808569366E-04
               1.4451572649774079E-03
              -4.9912086670072543E-04
              -2.8827351136696817E-03
              -6.3958143754130219E-04
               6.7468695604175008E-05
               2.5658955603263620E-03
               3.0536340744844203E-03
               5.8221768505832279E-04
               8.6385094945446556E-04
              -4.6584082165342542E-03
               1.3478139859197527E-03
              -5.9857763248419239E-04
               1.7336284068667316E-03
               4.5732131995354972E-04
              -3.9399777518334453E-04
              -8.0103815388853973E-05
              -1.0517752003256969E-04
               1.1163994761542934E-04
               1.6988326180918346E-03
              -2.2980857005193710E-04
               1.5199578628052623E-03
              -9.7040161358471523E-04
              -5.4721081448854531E-05
               1.0301867976914918E-03
               1.9811867053815212E-03
              -7.4441879197962148E-04
               2.8456848922725741E-04
              -7.7039975926589056E-04
              -1.4300651816022698E-03
              -4.1323124277138539E-03
              -8.9472499809900769E-04
               2.3007658769042486E-03
              -1.1325196691061850E-03
               2.5509413017386006E-04
              -1.5052465120452367E-03
               3.4418736612306880E-04
              -7.1843984005801834E-03
               1.4288613996515020E-03
              -1.0199360831534927E-03
               1.7879348575300337E-04
              -7.2427734952610582E-04
               9.5859395125174024E-04
               4.4119037243016998E-04
               5.5568785229772938E-04
               1.7571992321341719E-04
              -4.4100760056967440E-03
              -2.2909610204944759E-04
              -1.5644763310359597E-03
               1.3105367102612259E-03
               6.5539164102909793E-04
               4.1503976155723189E-03
              -9.4420883575216212E-04
              -1.2275309929596393E-03
               1.5436641152576252E-03
              -1.9872320511401653E-03
               1.3718809515119131E-03
               2.2941903308880025E-03
              -1.6025529339222236E-03
               1.5324863525167287E-03
               1.1247227952251031E-03
              -1.5911104233982134E-03
               2.7896386922755846E-03
               3.6541566572643596E-04
               2.2402577988709022E-04
               1.7966100298498430E-03
               1.7134547281255587E-03
               7.6069253395859748E-04
               6.7905175877580929E-04
               4.5290374475511182E-03
               1.5110780371607965E-03
               5.2772952427316043E-03
              -3.1938927300183971E-03
               2.3820765736557638E-03
               5.9469232092214180E-04
              -1.7255187810091364E-03
               2.5298224716968796E-03
               3.5785368826486718E-04
              -2.0255817399426200E-03
               2.0345530415849969E-03
              -2.8654878269949774E-04
               2.7517568620241991E-05
               6.9132711701478376E-04
              -9.1849368497853867E-04
               2.6010685602464228E-03
               1.2985171860511219E-03
               2.2010526349821357E-03
              -5.4649197956721431E-04
              -7.3577241340007057E-04
               7.7203932915660114E-04
               5.1382641050617386E-04
              -5.4483519354135519E-03
              -3.8648104825934741E-04
               5.7864876941043821E-04
              -1.0801930958507112E-03
               1.1229676457004244E-03
              -2.1249672006474897E-03
              -1.3114088468179504E-03
              -1.5076558409902754E-03
              -4.2569388106099293E-04
               1.3064904724683617E-03
               3.7984274182624239E-04
               1.1791524626377308E-03
               7.3213372645009878E-03
               2.3428153888385296E-02
               6.9604222526685614E-03
               1.5820654042763603E-03
               2.2308652395693052E-03
               1.7397567996053573E-03
               2.2565579906726925E-03
              -1.6952670087005846E-03
               5.0234120920124425E-03
              -1.1391608591541688E-03
               2.1812187837538378E-03
               2.5537252487993411E-03
              -7.4987501317207411E-04
              -1.7777952301243408E-03
              -7.6654358018577161E-05
              -7.1906651613331514E-03
               2.9426630277765925E-03
               1.2408178285337364E-03
               2.8431249219276246E-04
               5.0152224020581210E-05
              -2.0197470138180267E-03
              -7.0657461447393860E-04
              -3.0065448349836800E-04
              -1.1663096609348052E-04
              -3.0660754432339471E-04
              -6.9986594547299052E-05
              -2.2633842037517973E-03
               1.2460634614337870E-04
              -3.2056338295159692E-04
              -2.3221265784406434E-03
              -4.3569139183826586E-03
               8.2744818484636233E-05
              -6.5201932886084968E-04
              -5.6893226533749474E-05
               2.1949459702448612E-03
               2.9661416397690806E-04
               4.2498460688884343E-04
              -2.1706820374479937E-03
              -5.3983745663343857E-04
               2.3704126284882828E-03
              -1.6753415082057996E-04
               1.3099022931669657E-03
               3.2009170805376306E-03
               4.9913930395454394E-04
               7.2852250019419347E-04
              -1.9328203370227504E-03
               4.2194474118315882E-03
              -1.8895748143303360E-03
               8.0702099290723135E-04
               4.2751612366240916E-04
              -4.1230347347586305E-04
               2.2833549039491087E-03
               8.2255849804092158E-04
               2.4144846228577833E-03
               1.4764462236271860E-04
               6.2160942164201261E-04
               5.9098744867620671E-04
               5.2694338983854544E-04
               3.5361516742078167E-03
               1.8465773012341857E-03
               2.1622008202999950E-03
              -1.6652562696007466E-03
              -1.8614246242496901E-03
               1.1489029080678751E-03
               1.1354427364501085E-04
              -3.6061722619932341E-04
               2.5312891732686240E-04
               6.9739702870877377E-05
              -4.4742922063609864E-04
              -3.3608634421849557E-03
               1.6889039352132682E-03
               4.6218199586470367E-04
               2.0048363025360672E-03
              -2.6770486276058011E-05
               6.3862755521792536E-04
              -2.8789592351054341E-04
              -1.1795610250770567E-03
              -4.8376410686214991E-04
               1.1731801363932303E-03
               9.0297041531122195E-04
               4.0379555702948084E-04
               2.5157945503844416E-03
               1.1816200827658315E-03
               2.1692071083912655E-04
              -3.3161510883244095E-04
               8.2803506009566583E-04
              -2.3927639404471793E-03
               6.5101485560294862E-04
              -2.0722304422295210E-04
              -5.3837290955894581E-04
               5.9722810224774065E-04
              -5.8666841050711326E-04
               2.1493198931753512E-03
              -1.1093093001201019E-03
              -6.8279015592997679E-05
              -1.5513278626442162E-04
               1.4188918885463088E-03
               4.9524672213291084E-04
              -2.1851359430786802E-03
               1.6228304824494969E-04
              -1.7428048318139018E-04
               1.6281905695328660E-03
               1.0020413923377673E-03
              -3.2808909309993135E-04
               5.5258411594720470E-04
               1.9278599813082544E-03
               4.5116041958644608E-04
              -4.9485081525252545E-04
              -1.7199032189270944E-03
              -4.9957917366550255E-04
               9.5746291568848366E-04
               1.7915491235430067E-03
              -1.5594401296677150E-03
              -1.0755198191843001E-03
               5.8437179005112836E-03
               1.3800094292634665E-03
              -5.6471357272533359E-03
              -1.5745682264413341E-04
               1.7384330070113045E-03
              -8.6876902151106911E-04
              -1.0858516432424707E-05
               4.9437391057462437E-04
               4.6396633437625364E-04
              -3.8135755683790899E-03
               1.0453003384607816E-03
               1.2463992616413531E-03
              -2.3801650272017500E-03
               1.6192496600717313E-03
              -2.8392692971237099E-04
              -1.2681175090353512E-03
               3.7045896144674269E-03
              -1.4696306362783197E-03
              -2.3083153682185486E-03
              -1.1040936780066311E-03
               1.6456466166678957E-04
              -4.5556427613441617E-03
               5.8535755174345368E-03
               1.8578805416165833E-04
              -6.3611593835002575E-04
               8.8221966990464310E-04
               1.7707278626551374E-03
               3.3680909186354778E-03
              -5.8134849941802547E-04
               1.1661852510071383E-04
              -2.1710784434279887E-03
              -4.0869650885583270E-03
              -1.2585026184069438E-03
              -5.7352386592282568E-04
              -1.6398961993711316E-03
               8.6692113185573541E-04
               9.9022879686520480E-04
               6.5277009302201305E-04
              -1.4596937410122910E-03
              -2.1126830594856085E-03
               2.9797604905434020E-03
              -8.6235171325084903E-04
              -1.8277212344811273E-04
               1.2330612635851291E-03
              -6.4998795770539907E-05
              -2.0158752442393816E-03
              -1.5067376888870979E-03
               3.5543589416324865E-03
              -8.8201938953178546E-04
              -8.0810453378875032E-05
               9.4481264955508144E-04
               1.2758217643049700E-04
              -2.3051339706517274E-03
              -9.0068575664231093E-05
               5.3361941226679149E-04
               3.5980808614772793E-04
              -6.2206731036310633E-04
               6.1846471475573457E-05
               1.2567202524116101E-03
               1.8784334870471265E-03
               1.5044150763887318E-04
               6.4407105576470402E-04
               1.9791164651464574E-04
              -1.8161420713070848E-03
              -2.3154665904370647E-03
               4.2294459261975424E-04
              -1.1295933631579129E-03
              -1.0874468816352899E-03
              -5.0692955952207281E-04
              -1.1289095551319293E-03
              -1.0576139566828254E-04
               2.3512181705961357E-04
               1.0369021336606652E-04
               2.0874519266212204E-03
               1.3500822190077911E-03
               2.9956524226890766E-03
              -1.9995660656782696E-03
               5.0288909924253939E-03
               8.2903280588076669E-04
               1.1191922780250827E-03
               4.0213435402722736E-06
               4.2279798150897971E-04
               1.6256717729824751E-03
              -1.8350432244086481E-03
              -1.6238495796299937E-03
              -1.9674550236020586E-03
               1.0538052719339525E-03
              -2.3365392529467329E-03
              -4.0277378241994669E-04
               2.1259117711122750E-03
              -1.0179843308357436E-03
              -9.3689008153681431E-04
              -1.6996235854758706E-03
               1.0025007751841718E-03
               1.0515457392406649E-03
              -1.4422483870420372E-03
               2.2306518137314713E-04
               2.0492997284828614E-03
              -5.4977192783351326E-04
               2.4516409692972225E-04
               1.4278807654432820E-03
               1.5045610636840780E-04
               1.0140120733469443E-03
              -9.8401362050265956E-05
               8.6225903762006699E-04
               2.0472424863594075E-03
               8.1731936965032061E-04
               4.3722266577514348E-05
               1.8897497476022477E-03
              -7.5467335113475796E-04
              -8.6942031865724868E-04
               4.1945565686444272E-04
              -3.3382936705581151E-03
              -9.6070487685269912E-04
              -9.0191963588207285E-04
               2.5529494755359829E-04
              -1.2131059625000689E-03
               2.9530939243805525E-04
               1.1234847991472632E-03
               1.8316401009806793E-04
               6.7507327100112887E-04
               4.0034099396129494E-03
               3.0833921162101425E-03
               4.5101171354793517E-04
              -1.5984564924199421E-03
               1.4292116253351462E-03
              -1.6577177900230779E-03
               1.5532378227281420E-04
               6.0470001523878073E-04
              -6.1087756672431820E-04
               4.0419084464856747E-04
               1.0440029761650028E-05
              -1.3258738001534944E-03
               6.4597270143092894E-04
              -1.0957110377825797E-03
              -1.1928752099491257E-03
               4.6363995002074328E-05
              -2.8832220506155824E-03
              -5.0853904586328367E-04
               1.8609880840571270E-04
              -4.1568901354037895E-04
              -7.2712128791487657E-04
               4.5087316602215963E-03
               1.8340346959626302E-03
              -3.9104277991971147E-04
              -1.4958853292293569E-03
              -7.2755052527931536E-04
               3.2291574291295404E-04
              -1.7837371785405156E-03
              -1.3008480777717386E-03
              -1.9338926424373900E-03
               1.2620700166652528E-03
               7.1216889061437674E-05
               1.9468372258153780E-03
               1.6807008437125998E-03
               1.4203766063951599E-04
              -7.4143298569503691E-03
               2.5208911832783104E-03
              -1.5686230563552489E-03
               1.0988828092643008E-04
               2.0085511588505281E-03
              -4.5436731570664969E-04
              -1.7873456649934831E-03
              -1.1548056173130857E-03
               1.8994892577643301E-03
               5.5753708702250095E-04
              -1.8920769870727854E-03
              -1.0650587489170191E-03
              -3.5221613211713400E-04
              -5.3288149647382518E-04
              -9.9387511120308815E-04
               2.1350432433724425E-03
               2.9482798242828846E-04
               4.7637947791282767E-04
               1.4095293637030647E-03
               1.0791027458608798E-03
              -1.5473305710893604E-04
               1.0413455193473609E-03
               4.9109919207838278E-05
               6.3177630994896332E-04
              -4.3219664125662919E-03
               3.5556215922327846E-03
              -3.4121380662413455E-04
               3.2185402579837093E-03
               2.4558827101090405E-03
               2.3835848310114243E-05
               2.7718227867475132E-03
              -1.3761208023640047E-03
               1.1545001959120344E-03
               8.1097293465293293E-04
               1.9152102428702036E-03
              -2.4583664672670744E-03
              -1.9696817925012860E-03
               1.9442524881305222E-03
              -7.3268034926546712E-04
              -6.4228693985268260E-04
              -2.8871999202861604E-04
              -1.6812403128357882E-03
               9.1434837661075736E-06
               2.9254079720445933E-03
              -3.8700549998954299E-03
               6.7537722547058214E-03
               1.5836649760715563E-03
              -4.8688116623059503E-03
         &END THERMOSTAT_ENERGY
         &RNG_INIT
Wiener process for Thermostat # 1        1 F T T   9.6034046541803053E-01        3787683357.0        3087782832.0        1748052604.0        2667510265.0        4008086446.0        2261759961.0             12345.0             12345.0             12345.0             12345.0             12345.0             12345.0             12345.0             12345.0             12345.0             12345.0             12345.0             12345.0
Wiener process for Thermostat # 2        1 F T T   2.4114338295518278E-01        1179694871.0         541212748.0         232902104.0        3382427230.0        2103196390.0        3785904409.0        3692455944.0        1366884236.0        2968912127.0         335948734.0        4161675175.0         475798818.0        3692455944.0        1366884236.0        2968912127.0         335948734.0        4161675175.0         475798818.0
Wiener process for Thermostat # 3        1 F T T  -6.6473293988594606E-01        1999860315.0          76810862.0         886368545.0        3621204794.0        3803242429.0        1698863963.0        1015873554.0        1310354410.0        2249465273.0         994084013.0        2912484720.0        3876682925.0        1015873554.0        1310354410.0        2249465273.0         994084013.0        2912484720.0        3876682925.0
Wiener process for Thermostat # 4        1 F T T   3.9559733542600223E-01         366146793.0        1125206984.0        2570883060.0        3991817458.0        3243287048.0        3644444099.0        2338701263.0        1119171942.0        2570676563.0         317077452.0        3194180850.0         618832124.0        2338701263.0        1119171942.0        2570676563.0         317077452.0        3194180850.0         618832124.0
Wiener process for Thermostat # 5        1 F T T  -4.5143496412332401E-01         341825553.0        1494609388.0        2317620093.0        1123341532.0        3866382875.0        1328364436.0        1597262096.0        3906379055.0        3312112953.0        1016013135.0        4099474108.0         275305423.0        1597262096.0        3906379055.0        3312112953.0        1016013135.0        4099474108.0         275305423.0
Wiener process for Thermostat # 6        1 F T T  -4.5079784954259378E-01        2833099893.0          82214556.0        1397037642.0        1875477660.0        4168293079.0        2439848815.0          97147054.0        3131372450.0         829345164.0        3691032523.0        3006063034.0        4259826321.0          97147054.0        3131372450.0         829345164.0        3691032523.0        3006063034.0        4259826321.0
Wiener process for Thermostat # 7        1 F T T   8.0111961846006427E-02         210247545.0        3218063506.0        3754228590.0            291304.0         923124400.0        2991289934.0         796079799.0        2105258207.0         955365076.0        2923159030.0        4116632677.0        3067683584.0         796079799.0        2105258207.0         955365076.0        2923159030.0        4116632677.0        3067683584.0
Wiener process for Thermostat # 8        1 F T T  -3.0320508363677851E-01        2575428286.0        3471321498.0        1926547192.0         451626367.0        1548588232.0        1571762830.0        3281794178.0        2616230133.0        1457051261.0        2762791137.0        2480527362.0        2282316169.0        3281794178.0        2616230133.0        1457051261.0        2762791137.0        2480527362.0        2282316169.0
Wiener process for Thermostat # 9        1 F T T   8.5330590541212087E-02        3614459852.0        2248599107.0        2381093336.0         126143069.0          77825363.0        3659416361.0        3777646647.0        1837464056.0        4204654757.0         664239048.0        4190510072.0        2959195122.0        3777646647.0        1837464056.0        4204654757.0         664239048.0        4190510072.0        2959195122.0
Wiener process for Thermostat # 10       1 F T T   5.5849833877943333E-01        3287394005.0        2958956882.0        1609822556.0        4154297235.0        4290167407.0          66136269.0        4215590817.0        3862461878.0        1087200967.0        1544910132.0         936383720.0        1611370123.0        4215590817.0        3862461878.0        1087200967.0        1544910132.0         936383720.0        1611370123.0
Wiener process for Thermostat # 11       1 F T T  -6.5978975258419426E-01        2900806727.0         997523735.0        2374814130.0        2545925410.0        4228998404.0        3927420689.0        1683636369.0         362165168.0         814316280.0         869382050.0         980203903.0        2062101717.0        1683636369.0         362165168.0         814316280.0         869382050.0         980203903.0        2062101717.0
Wiener process for Thermostat # 12       1 F T T   4.0403403582498670E-01        3126545503.0        3663266814.0        2176231153.0        3271238152.0        1215793652.0        3424830068.0         272317999.0         166758548.0         310112982.0         201045826.0        1680231254.0         118290799.0         272317999.0         166758548.0         310112982.0         201045826.0        1680231254.0         118290799.0
Wiener process for Thermostat # 13       1 F T T  -2.8419137835772958E+00        2764993122.0        3432580777.0        2117545319.0        4022622260.0        1451932743.0        3777896091.0        2245755202.0        1652682525.0        2865544364.0         721509566.0         209733568.0         592362218.0        2245755202.0        1652682525.0        2865544364.0         721509566.0         209733568.0         592362218.0