 # Version information for this restart file 
 # current date 2024-11-28 09:06:39.394
 # current working dir /scratch/work/courses/CHEM-GA-2671-2024fa/students/wx2237/comp-lab-class-2024/Week12-IntroAIMD/Runs/Proton
 # Program compiled at                              Sat Dec 12 18:27:15 EST 2020
 # Program compiled on                                         cs001.nyu.cluster
 # Program compiled for                                                nyu-intel
 # Source code revision number                                       git:8c64c6e
 &GLOBAL
   PRINT_LEVEL  LOW
   PROJECT_NAME proton_aimd_1ns_every0.5fs
   RUN_TYPE  MD
   WALLTIME 21600
 &END GLOBAL
 &MOTION
   &GEO_OPT
     OPTIMIZER  BFGS
     MAX_ITER  100
     MAX_DR     3.0000000000000001E-03
     &BFGS
     &END BFGS
   &END GEO_OPT
   &MD
     ENSEMBLE  NVT
     STEPS  2000
     TIMESTEP     4.9999999999999994E-01
     STEP_START_VAL  106
     TIME_START_VAL     5.3000000000000043E+01
     ECONS_START_VAL    -1.1027144142478624E+03
     TEMPERATURE     3.0000000000000000E+02
     &THERMOSTAT
       TYPE  GLE
       REGION  MASSIVE
       &GLE
         NDIM  5
         A_SCALE     1.0000000000000000E+00
         A_LIST     1.8595758612559999E+02    2.7263853498399998E-01    1.1526100454610001E+01   -3.6414578262600003E+01 \
             2.3173375816020001E+02
         A_LIST    -2.7809524712060002E-01    8.5951591808710006E-05    7.2189048017650004E-01   -1.9844539343859999E-01 \
             4.2409257583420001E-01
         A_LIST    -1.4825808131210000E+01   -7.2189048017650004E-01    1.3590902121280000E+00    5.1498896280349999E+00 \
            -9.9949268450990001E+00
         A_LIST    -1.0372189126880000E+01    1.9844539343859999E-01   -5.1498896280349999E+00    2.6661910891169999E+01 \
             1.1507715495310000E+01
         A_LIST     2.1801346360420001E+02   -4.2409257583420001E-01    9.9949268450990001E+00   -1.1507715495310000E+01 \
             3.0958394565589998E+02
         &THERMOSTAT_ENERGY
              -2.2730956468735626E-04
              -3.6848662023910910E-04
              -7.3172900191265295E-04
              -1.4954679085619077E-03
              -4.7968014874387043E-04
               4.0510735143872469E-03
              -2.3210138208555110E-03
              -4.2559712505125169E-04
               2.4517327571891984E-03
               6.5914073716483092E-05
               2.8230746373007196E-03
              -2.6428359933177098E-04
               2.3772081259410146E-03
               3.7624258689462745E-05
               2.3940148541906994E-03
              -1.7781796192869218E-03
               1.0083474001829787E-03
               7.5796518804028938E-04
               3.1034511823140803E-05
              -4.1078586181467994E-04
              -2.4779120386502027E-04
               2.4163419961998429E-03
              -1.3775787026181299E-03
              -3.4706984104515322E-05
              -5.7506626952734895E-04
              -3.5116950148242681E-03
               4.9929552071313707E-04
               4.3556414647765319E-04
               6.0923454459946031E-04
               6.6765436467672052E-05
               1.5452633447496410E-03
              -1.2070538864015388E-03
               1.1387171717098948E-03
               1.2182627006187665E-03
              -4.5090393411408563E-03
               2.7855670791716645E-03
               2.4928570687746580E-05
              -3.0841952101786756E-04
              -9.7324813244843668E-04
              -4.6791131829022583E-04
               4.3391328533598237E-03
              -9.4582641290855867E-04
              -5.9837660185702132E-04
               3.2697838512836769E-03
              -2.8126974290078608E-03
               1.0917092321180931E-03
              -3.7093261169246451E-04
              -5.3261119246130193E-05
              -2.9414110827075401E-03
               4.2328111014640655E-04
               7.1875551008256523E-04
              -9.8865335286551538E-04
              -7.4548086303098367E-04
              -1.3267954118466758E-04
              -3.6154342550080180E-03
              -6.7144216162130961E-04
              -1.5141493708492866E-03
               1.9545135319426849E-03
               7.9870922128214895E-04
              -3.9044144305006869E-03
               1.0202628786972331E-03
               4.2523761602028028E-03
              -2.2919454540923191E-04
               1.5101348906875400E-03
              -1.2924346443030947E-03
               1.2838703532514581E-03
              -1.8021781556156423E-03
               3.3037069411121067E-03
              -1.7724713389121085E-03
               1.3629744234615885E-06
              -4.8880482528060147E-04
               1.5560566418913115E-03
              -9.4934892645238056E-04
               5.9990573035686014E-04
               6.7343108674371762E-04
              -3.2104056143247186E-03
               6.6243452532778328E-04
               3.8755329395582733E-03
               3.3177100279283872E-03
               1.2058118074037518E-04
              -8.3952523782500484E-04
              -5.4864579905112155E-04
               5.8554074964908864E-04
              -5.9149600374904269E-04
               1.6059302072304296E-03
              -1.6560272574796949E-03
               2.7492106723568232E-04
               7.8269240901768374E-04
              -2.2440994518464671E-04
              -1.3357515866759310E-03
               9.9250936912071179E-04
              -4.9396670869071633E-04
               1.5529804441914321E-03
              -1.3670819287942520E-03
              -3.0746146506567045E-03
               3.5242289596793539E-04
               8.4173605400767197E-04
              -1.1963117552041542E-03
               9.4768843577122132E-04
               2.1465109074405532E-03
               4.0633743572342281E-03
               3.7191646196248294E-03
               7.7753239524955156E-04
               1.9416056136752471E-02
               5.6171270178144942E-03
               9.6900777814844501E-03
               1.0671015085233168E-02
               1.1531040456710991E-02
               3.0608940426874770E-03
               6.1344574202103916E-05
               1.0344454344564996E-03
              -8.1047692567828280E-05
               8.4155806819307245E-04
               4.6689717819587198E-04
               9.4229748425094548E-04
               3.8526298132558617E-03
              -8.7893090167627322E-03
               8.5256879520466422E-04
              -6.6608709386867970E-05
               5.2797846793409058E-04
               3.9964368242528646E-05
               7.1835025483181969E-04
               5.4740554104345269E-03
              -8.8177099659098035E-04
              -3.3465240488302125E-03
              -2.8422397966505037E-03
               1.1311660578574695E-03
               2.8046631656641597E-03
               9.6450366781053866E-05
               1.3484657433414544E-03
              -1.5852691810243490E-03
              -1.7787910541696044E-03
               1.6922094018385280E-03
              -2.8648775506633422E-03
              -3.2416072597801570E-04
               1.2286229815099841E-03
              -1.6598231351751406E-03
              -3.7620975979446114E-04
               5.8495692500872909E-04
               1.6409864158381650E-03
               1.7013493727722193E-03
               3.5095878471876544E-03
              -1.9692418609832302E-04
              -2.2723650923502298E-04
              -3.8094213859875021E-04
               1.9349824055878463E-03
               1.9520944589406215E-03
              -1.4061184897119620E-04
              -1.1526525366420824E-03
               7.7522312827368740E-05
              -2.2359899508017354E-04
               5.7821033037514251E-04
              -9.0507028448961200E-04
               1.1143092192835843E-03
              -5.1395799700104943E-04
              -6.9189322184148893E-04
               1.5639591052826814E-04
              -1.1202012003842026E-03
              -8.6188531021655503E-05
               9.0969551615539921E-04
              -7.6960594020012742E-04
              -2.9310172384072464E-03
              -5.1099970134014920E-04
               4.3360306332550859E-04
               2.3944700676614391E-03
               3.0612251065263519E-03
              -8.9086221559172651E-04
               7.4015138629669676E-04
              -4.5034381359392878E-03
               1.4540561270349423E-03
              -4.6601334907160255E-04
               2.0346759698676845E-03
               6.3658207030708775E-04
              -2.0854175785645131E-03
               1.6440071704019760E-04
              -4.9219270009063392E-04
               9.3073272727132365E-04
               1.7821680498391586E-03
              -2.3443821446277475E-04
               2.3961912788500804E-03
              -1.3171060782530720E-04
              -1.0546545467812919E-04
               9.7141386107744249E-04
               2.0223383135075565E-03
              -6.5694976280194410E-04
               2.9997573530731424E-04
              -2.1286263269954895E-03
              -1.4542656861346835E-03
              -3.9568416452980320E-03
              -1.8575339380511602E-03
               1.0046013543205867E-03
              -1.2510970599131075E-03
               9.8305551911990400E-04
              -1.5378522349939379E-03
               2.4552592211539957E-04
              -6.0866510119991103E-03
               1.3006999428148195E-03
              -1.0095458782696392E-03
               4.8459056951896418E-04
              -5.6006961421137366E-04
               1.0236385667414080E-03
              -2.1543081571683172E-05
               5.9130988902706479E-04
               4.3277411741748413E-04
              -2.9274574717386361E-03
              -2.0955579507588777E-04
              -1.4760806746122012E-03
               1.1373214999358956E-03
               3.5634341119357259E-04
               4.3334126039866862E-03
              -6.0754390486787322E-04
              -1.1684859289780953E-03
               1.8440546788837896E-03
              -2.4206716899542935E-03
               1.1663301116628054E-03
               3.4792178898694322E-03
              -2.6799730208052074E-03
               1.3019395173991520E-03
               3.0678659993387252E-04
              -1.4752489562224473E-03
               2.6526285115109141E-03
               3.4232464763242861E-04
               2.9983373957849925E-04
               1.7906793596029411E-03
               1.9939868055736847E-03
               9.7730986135421689E-04
               5.9622141246407968E-04
               4.2315411645606387E-03
               1.9094411352616181E-03
               5.6967504911523857E-03
              -3.5171387775812741E-03
               3.1787576839869408E-03
               2.4733488073741029E-04
              -1.6432889520299741E-03
               2.4082322875149101E-03
              -3.0198218202346088E-04
              -2.0717908849331584E-03
               2.2695285315862085E-03
              -2.8260045509253195E-04
              -2.9406404553203921E-04
               8.2963182574849893E-04
              -8.4787907830747200E-04
               2.6282704174123003E-03
               1.2978591691433705E-03
               2.2236347452829330E-03
              -1.2229966156443494E-03
              -6.6451594692911115E-04
               9.1048154567753125E-04
               4.1266771062525924E-04
              -3.7441188363438074E-03
               9.9918551038658638E-04
               5.4696579568333601E-04
              -1.4531445446736735E-03
               1.0681983376445818E-03
              -2.8056862995920165E-03
              -1.6471554717323402E-03
              -1.2688654961173914E-03
              -3.4771733714718814E-04
               1.5619396240102753E-03
               4.0943420151700959E-04
               1.9207569006083165E-03
               7.1695852484631954E-03
               2.3479845388578245E-02
               7.0119261856112138E-03
               1.6507915622733596E-03
               2.4336689004149730E-03
               1.6456407368369741E-03
               2.3685075317691562E-03
              -2.3553917328164482E-03
               5.1627961404096898E-03
               4.4103517578587153E-04
               3.4014059103300428E-03
               3.0749320439164567E-03
              -4.5690303751436844E-04
              -1.6913556105240487E-03
              -1.7118846902872248E-05
              -7.2175507471124315E-03
               2.9565578463538653E-03
               1.2146117766241628E-03
               1.0089201365704229E-04
              -1.8799812078833711E-05
              -2.0414875691771826E-03
              -4.6830967795864119E-04
              -2.5942647012800878E-04
               7.1611759270833817E-05
               5.2479819081652343E-04
              -4.5333830520163877E-04
              -2.3165999035086554E-03
               2.9025818854661891E-04
               4.4359985510556489E-05
              -2.3458192428405340E-03
              -1.3033137000651070E-03
               6.4377527565051302E-04
              -8.0056870401445956E-04
              -5.9322772430454735E-05
               2.6923885484222013E-03
               4.9480109498761967E-05
               1.2602373438059069E-03
              -2.2631276297073485E-03
              -4.0548032114380225E-04
               2.3726097381153687E-03
               1.4310635857307064E-04
               1.4648532373232094E-03
               2.9038284616244884E-03
               5.2416366849497001E-04
               7.6448229891953423E-04
              -1.9566294397341220E-03
               4.5492153955963557E-03
              -1.9175190347058293E-03
               8.1376512480009391E-04
              -6.8552425502567795E-05
              -3.4819611097422829E-04
               2.4819022229908816E-03
               9.9986093821978613E-04
               2.5939013354011964E-03
              -5.6510351132344947E-06
               6.4525068941603001E-04
               8.2996448540073749E-04
               5.7833836913678100E-04
               3.5589258918020663E-03
               2.2529229569200780E-03
               1.9374198867387615E-03
              -1.4446430444579040E-03
              -5.6826975894760370E-04
               1.3259370826776986E-03
               1.4458216699977496E-04
              -6.8111487527664080E-04
              -2.7135896508998435E-04
               4.8828391072881382E-05
              -4.4334451781188688E-04
              -3.1056733072421221E-03
               1.9108394037925054E-03
               4.5758408666766754E-04
               1.9189100848954464E-03
               4.0018657329874351E-05
               1.0034685786336048E-03
              -2.6387063615652707E-04
              -8.3099022544184421E-04
              -2.1699910724473628E-03
               1.7334973396020148E-03
               1.0680720776194206E-03
               4.3957495830899176E-04
               2.3093251859099021E-03
               1.3803882737263994E-03
               3.1375198247529299E-04
              -6.8540819643671703E-04
               7.4433479437291893E-04
              -2.4980945220702553E-03
               6.3836541226382508E-04
              -8.4070327583402204E-05
              -7.8955918868942932E-04
               1.0460617112620916E-03
              -7.2546210291852425E-04
               1.2406195592866082E-03
              -7.9521653377325190E-04
               1.0796217902062139E-04
               9.5002349259419431E-04
               1.2811556408294583E-03
              -1.3449833703848863E-04
              -1.9741544842505577E-03
              -1.7051490880099491E-05
              -1.3325509951895166E-04
               1.7396306754984998E-03
               9.7713389183187770E-04
              -3.2984557480617477E-04
               5.9462314375480013E-04
               1.4525091079018175E-03
               4.5490883212767510E-04
              -4.6552646635582919E-04
              -9.0669313378149844E-04
              -7.9582696323622507E-04
               1.0613685806467115E-03
               1.6976259583957019E-03
              -3.0515805136820204E-03
              -1.0427690772268998E-03
               5.6951377826830775E-03
               1.8935819873884192E-03
              -5.5662085245491441E-03
               6.6954275866269616E-05
               1.1932085406395404E-03
              -7.4347294459113742E-04
              -8.8053827978883472E-05
               5.1610651141835667E-04
               1.7168929200962350E-04
              -3.6604959912088816E-03
               1.0137665596192289E-03
               1.1798786239501950E-03
              -2.3085750090483829E-03
               1.6592459847884788E-03
              -2.6134630827681399E-04
              -1.9978085460492377E-03
               3.4169160134563566E-03
              -1.2081953514534946E-03
              -1.3715908354787066E-03
              -1.1779832903280241E-03
               6.1686835227067814E-04
              -3.7953118266699911E-03
               6.2933640856817023E-03
               5.7784855587192938E-04
              -4.4299013993452359E-04
               3.5647518292299444E-04
               1.0016403369415262E-03
               3.2798567368083637E-03
              -1.0057779956758315E-03
              -3.5037473101696623E-05
              -1.7448366947298874E-03
              -2.9264527745658762E-03
              -1.6202574523965256E-03
              -2.6900058573944689E-04
              -2.7017050025350412E-03
               4.8975702175323719E-04
               4.9252452940798126E-04
               7.1899820679835805E-04
              -1.2641046782326418E-03
              -2.9116258572911857E-03
               3.0694201159858869E-03
              -8.7788682222465959E-04
              -1.2207142344945825E-03
               1.6885110741881805E-03
              -3.1782857154346211E-04
              -2.0664645495846196E-03
              -1.2326048060157710E-03
               3.6684872187107052E-03
              -9.7763926450984240E-04
              -2.4034945263029506E-05
               3.0399090764744334E-04
               1.0867469677101370E-04
              -2.3508565821022949E-03
              -2.5661645510179965E-04
               1.1371251628697193E-03
               2.5664433969308626E-04
              -1.0600536967159562E-03
               2.1551587148794499E-04
               5.2700460928706576E-04
               2.4383231411717605E-03
              -3.3322435915577063E-04
               5.1076389467186352E-04
               2.3460478626282654E-04
              -1.5800085228744973E-03
              -2.2304589855604525E-03
               2.3967540882876351E-03
              -1.9245339726104952E-03
              -1.0450596898890830E-03
              -4.0835557154459036E-04
              -1.4568123973183024E-03
               8.4730480221695032E-04
               7.5378448141116133E-04
              -1.2141061927678905E-05
               2.4824290211283252E-03
               1.2489147935323222E-03
               3.4186625661533051E-03
              -2.1078846128210009E-03
               5.0859467151799466E-03
               3.8178914049719125E-04
               9.4843076961279482E-04
              -1.0838056699320628E-04
              -1.5483375358040980E-03
               8.1312768204064561E-04
              -1.7559985578007938E-03
              -1.5440737047335131E-03
              -1.7251100933129244E-03
               8.4595985093453689E-04
              -2.3955392040947614E-03
               6.6035030391602936E-04
               2.7771423529686554E-03
              -1.1404336738586149E-03
              -1.6599836314071942E-04
              -2.0165650045927898E-03
               9.2933923834213330E-04
               3.0642856141701658E-04
              -2.3693296367560783E-03
               4.8752686891271273E-04
              -1.3531910480062371E-03
              -1.5979424789349858E-04
               4.0694999942540570E-04
               1.1524411419814764E-03
               3.5001572451317468E-04
               1.0832339548088202E-03
              -2.2026825854071420E-04
               2.0864632787780590E-04
               1.6911098113994993E-03
               1.0601394215838558E-03
               3.9702078348363056E-04
               2.0072038576917036E-03
              -7.8947372969238069E-04
              -4.1977848225295875E-04
               4.2471643588588739E-04
              -3.3362114697894382E-03
               5.3002011134775976E-04
              -9.2087125121939433E-04
               2.5711657466189386E-04
              -9.6478278413355276E-04
               8.1911596933286791E-04
               1.7055422911781877E-03
              -7.4830328523414595E-05
               9.1146825628372007E-04
               3.8037831152589775E-03
               3.3811013025171603E-03
               5.5090889777298705E-04
              -1.0830594152207954E-03
               1.5131742155938337E-03
              -1.4664824264576137E-03
               1.5906681929294796E-04
               7.8868950200253446E-04
              -1.4068269428835932E-03
               3.3574074100834329E-04
              -2.8152577796875569E-04
              -1.4220078717428050E-03
               1.0082212499718183E-03
              -1.6678818216427080E-03
              -9.1924810282609866E-04
              -1.9399188161758961E-04
              -3.2597817904984087E-03
               1.4241580504825301E-04
               9.3340699892454845E-04
              -6.7245338532151552E-04
              -9.4719125351862494E-04
               4.2114723435405068E-03
               1.8226070396976590E-03
              -7.7853652071677713E-04
              -1.4838463093207477E-03
              -8.9250871299556859E-04
               4.8217424793221223E-04
              -1.7143133821717650E-03
              -1.4125999742592397E-03
              -7.8681167655957236E-04
               1.0358204131476533E-03
              -7.7864889265882842E-04
               2.1842420155148241E-03
               1.5885394854967170E-03
               5.3877816307098896E-04
              -6.8609363000499716E-03
               2.8461266743158818E-03
              -1.7262231806987483E-03
               1.1338742088703546E-04
               1.7397959614900260E-03
              -3.4700088049063540E-04
              -1.3640025940204028E-03
              -9.7390288680870352E-04
               1.7727782635266038E-03
               1.1546982495785169E-03
              -1.4853978308788805E-03
              -2.7140685240003249E-03
              -6.5988410691930730E-04
              -4.4312289385954406E-04
              -1.9671999002977220E-03
               1.2243646427653216E-03
               5.7433307904580897E-04
               3.4740139118293669E-04
               1.2966303854771814E-03
               5.3051403682885620E-04
              -1.5114777575745244E-04
               1.0473095553420939E-03
              -1.3852627881974416E-05
               6.3176148757366688E-04
              -4.2334646024502053E-03
               3.0009278351336472E-03
              -3.1774081874051446E-04
               2.6954526894944625E-03
               2.0388600160160552E-03
               2.9022189062621835E-06
               2.7428046824569579E-03
              -2.4230142801983249E-03
               6.4331465592334307E-04
               9.7657431996106786E-04
               2.2087216203154104E-03
              -2.3489106810816087E-03
              -2.0194283849568596E-03
               1.5507579911510909E-03
              -5.8711330404042890E-04
              -6.3972503268079628E-04
              -5.0491591477104655E-04
              -3.2721629223125370E-04
               6.5545295641894114E-05
               2.7490072692556442E-03
              -3.3701288662238262E-03
               6.5789042621071494E-03
               1.0010843069325221E-03
              -4.9883634814374125E-03
         &END THERMOSTAT_ENERGY
         &RNG_INIT
Wiener process for Thermostat # 1        1 F T T  -1.3816393155785021E+00         983405776.0        1086870000.0         837643839.0        4055466025.0        4021894313.0        3470050305.0             12345.0             12345.0             12345.0             12345.0             12345.0             12345.0             12345.0             12345.0             12345.0             12345.0             12345.0             12345.0
Wiener process for Thermostat # 2        1 F T T  -1.7768174042990985E+00        1365541946.0        1942087417.0        3389759054.0        1978599508.0         456665411.0        3553485981.0        3692455944.0        1366884236.0        2968912127.0         335948734.0        4161675175.0         475798818.0        3692455944.0        1366884236.0        2968912127.0         335948734.0        4161675175.0         475798818.0
Wiener process for Thermostat # 3        1 F T T  -7.1921947692211941E-01        3303143495.0        2759200739.0        3068716110.0        2733984095.0        1115764122.0        2366176807.0        1015873554.0        1310354410.0        2249465273.0         994084013.0        2912484720.0        3876682925.0        1015873554.0        1310354410.0        2249465273.0         994084013.0        2912484720.0        3876682925.0
Wiener process for Thermostat # 4        1 F T T   1.0512907312337543E+00         582705025.0        1580782167.0         267975218.0         243591277.0        2539161828.0        4046065705.0        2338701263.0        1119171942.0        2570676563.0         317077452.0        3194180850.0         618832124.0        2338701263.0        1119171942.0        2570676563.0         317077452.0        3194180850.0         618832124.0
Wiener process for Thermostat # 5        1 F T T  -4.5309026402430558E-01        2866442835.0         819755656.0        1761869059.0           1767633.0         267183546.0        3987758770.0        1597262096.0        3906379055.0        3312112953.0        1016013135.0        4099474108.0         275305423.0        1597262096.0        3906379055.0        3312112953.0        1016013135.0        4099474108.0         275305423.0
Wiener process for Thermostat # 6        1 F T T   1.1880367440628679E+00        3038279137.0        2061290021.0         531442695.0        1173588402.0        3307333107.0         814039338.0          97147054.0        3131372450.0         829345164.0        3691032523.0        3006063034.0        4259826321.0          97147054.0        3131372450.0         829345164.0        3691032523.0        3006063034.0        4259826321.0
Wiener process for Thermostat # 7        1 F T T  -7.9161934346421425E-01         299336830.0        1866533864.0        3118575474.0        1526760388.0         438285176.0        3596587537.0         796079799.0        2105258207.0         955365076.0        2923159030.0        4116632677.0        3067683584.0         796079799.0        2105258207.0         955365076.0        2923159030.0        4116632677.0        3067683584.0
Wiener process for Thermostat # 8        1 F T T  -3.8313515884416294E-01         533608298.0        1675958523.0        1008532137.0        4263205549.0          29618738.0        4202511551.0        3281794178.0        2616230133.0        1457051261.0        2762791137.0        2480527362.0        2282316169.0        3281794178.0        2616230133.0        1457051261.0        2762791137.0        2480527362.0        2282316169.0
Wiener process for Thermostat # 9        1 F T T   1.1900812199593389E+00        1944095030.0        2943662401.0        2855963107.0        1843217222.0         414408787.0        3845013741.0        3777646647.0        1837464056.0        4204654757.0         664239048.0        4190510072.0        2959195122.0        3777646647.0        1837464056.0        4204654757.0         664239048.0        4190510072.0        2959195122.0
Wiener process for Thermostat # 10       1 F T T  -7.3805709697074395E-01         400191920.0        1017828962.0        3906580715.0        3903407763.0         443816448.0         841340762.0        4215590817.0        3862461878.0        1087200967.0        1544910132.0         936383720.0        1611370123.0        4215590817.0        3862461878.0        1087200967.0        1544910132.0         936383720.0        1611370123.0
Wiener process for Thermostat # 11       1 F T T  -1.5196500139659903E+00        2365507216.0        1877998673.0        2732084911.0         441318195.0         601816828.0        3117865188.0        1683636369.0         362165168.0         814316280.0         869382050.0         980203903.0        2062101717.0        1683636369.0         362165168.0         814316280.0         869382050.0         980203903.0        2062101717.0
Wiener process for Thermostat # 12       1 F T T  -2.0124658275368554E-02        3293043243.0        3120277103.0        3236886974.0        2450150848.0         990221211.0        4111687888.0         272317999.0         166758548.0         310112982.0         201045826.0        1680231254.0         118290799.0         272317999.0         166758548.0         310112982.0         201045826.0        1680231254.0         118290799.0
Wiener process for Thermostat # 13       1 F T T   6.7714465196325166E-02        2387757476.0        3384254697.0        3886422991.0        1064696281.0         948234276.0          90056782.0        2245755202.0        1652682525.0        2865544364.0         721509566.0         209733568.0         592362218.0        2245755202.0        1652682525.0        2865544364.0         721509566.0         209733568.0         592362218.0