 # Version information for this restart file 
 # current date 2024-11-28 09:05:23.545
 # current working dir /scratch/work/courses/CHEM-GA-2671-2024fa/students/wx2237/comp-lab-class-2024/Week12-IntroAIMD/Runs/Proton
 # Program compiled at                              Sat Dec 12 18:27:15 EST 2020
 # Program compiled on                                         cs001.nyu.cluster
 # Program compiled for                                                nyu-intel
 # Source code revision number                                       git:8c64c6e
 &GLOBAL
   PRINT_LEVEL  LOW
   PROJECT_NAME proton_aimd_1ns_every0.5fs
   RUN_TYPE  MD
   WALLTIME 21600
 &END GLOBAL
 &MOTION
   &GEO_OPT
     OPTIMIZER  BFGS
     MAX_ITER  100
     MAX_DR     3.0000000000000001E-03
     &BFGS
     &END BFGS
   &END GEO_OPT
   &MD
     ENSEMBLE  NVT
     STEPS  2000
     TIMESTEP     4.9999999999999994E-01
     STEP_START_VAL  105
     TIME_START_VAL     5.2500000000000036E+01
     ECONS_START_VAL    -1.1027144142478624E+03
     TEMPERATURE     3.0000000000000000E+02
     &THERMOSTAT
       TYPE  GLE
       REGION  MASSIVE
       &GLE
         NDIM  5
         A_SCALE     1.0000000000000000E+00
         A_LIST     1.8595758612559999E+02    2.7263853498399998E-01    1.1526100454610001E+01   -3.6414578262600003E+01 \
             2.3173375816020001E+02
         A_LIST    -2.7809524712060002E-01    8.5951591808710006E-05    7.2189048017650004E-01   -1.9844539343859999E-01 \
             4.2409257583420001E-01
         A_LIST    -1.4825808131210000E+01   -7.2189048017650004E-01    1.3590902121280000E+00    5.1498896280349999E+00 \
            -9.9949268450990001E+00
         A_LIST    -1.0372189126880000E+01    1.9844539343859999E-01   -5.1498896280349999E+00    2.6661910891169999E+01 \
             1.1507715495310000E+01
         A_LIST     2.1801346360420001E+02   -4.2409257583420001E-01    9.9949268450990001E+00   -1.1507715495310000E+01 \
             3.0958394565589998E+02
         &THERMOSTAT_ENERGY
              -9.7416591370639931E-04
               2.7077763555366697E-04
              -3.8195243077218731E-04
              -1.5664813269635780E-03
              -1.1201060161434725E-03
               4.0096789651027833E-03
              -2.4446025176099260E-03
               6.7896358224940720E-04
               2.4708834419264474E-03
               3.0301022091401146E-04
               3.5413176348799403E-03
              -4.1748566016069574E-04
               1.6836071768372618E-03
               5.0635014439681149E-04
               2.0931496249590241E-03
              -1.8043017978772186E-03
               9.3436472929585756E-04
               9.9465919790994207E-04
              -4.0671948676870910E-06
              -5.2588161020820966E-04
              -3.9768501226224455E-04
               2.3796895174273405E-03
              -1.0746506861448821E-03
              -3.4300208162811173E-05
              -1.6429905568724520E-04
              -3.6194334323431283E-03
               1.2160821017989014E-03
               4.3864578747924499E-04
               5.5615062015296408E-04
               2.7563070121150118E-05
               1.4115144849431670E-03
              -1.1352493185725631E-03
               1.1095512627366695E-03
               1.3470529767580278E-03
              -4.5435136261651092E-03
               2.4792848033558315E-03
               2.0171809885984862E-05
              -2.4849384526792675E-04
               4.3830181433624654E-05
              -4.1236802013118766E-04
               4.4854565867968581E-03
              -9.4967653084557051E-04
              -1.4469291934067247E-04
               3.1731654753640939E-03
              -3.0171956134826114E-03
               2.0483849891892256E-03
              -4.3666381676961977E-04
              -4.1308284248111639E-05
              -3.1930032879087839E-03
               5.5545933297690149E-04
               5.8594259703564726E-04
              -1.2052710966811585E-03
              -6.0609748074530326E-04
              -1.4339659790028208E-04
              -3.2225030489839799E-03
              -6.2884190600068115E-04
              -1.2621254096529051E-03
               1.8494677119084042E-03
               7.8344771364774208E-04
              -3.6564739864183926E-03
               1.4597658887085118E-03
               3.7332319335129371E-03
              -2.9360842044206186E-04
               1.5844848598509363E-03
              -1.1574291657062336E-03
               9.3949226846108496E-04
              -1.9100412225235032E-03
               3.3221130330505270E-03
              -1.4821974599171339E-03
               9.4165203410444051E-05
              -7.9634316941018068E-04
               1.3761725061239296E-03
              -8.4337584871212895E-04
               6.8668785745308950E-04
               8.1356121962310776E-04
              -3.1736997098388681E-03
               4.3239576016889617E-04
               3.9145475600486472E-03
               3.1584527435393910E-03
               1.4077840595139756E-04
              -7.6584644843699862E-04
              -1.2922538542632339E-03
               6.8132417023523484E-04
              -6.2855375372438630E-04
               1.9208789756083075E-03
              -1.8895954103957413E-03
               3.8243728030890631E-04
               5.9871501707568732E-04
              -1.7526479504431219E-04
              -1.3374423207606495E-03
               1.6854207328683849E-03
              -1.3015800930380930E-03
               1.7483265973791398E-03
              -2.2898327618261160E-03
              -2.8433595315268765E-03
               4.5317502813904974E-04
               8.9734656074421748E-04
              -1.6407782821148992E-03
               7.4451499698703757E-04
               2.0664746903256343E-03
               4.1259178395825248E-03
               2.4843945742353086E-03
               7.3100269394308270E-04
               1.9364580359776892E-02
               5.1153266741242919E-03
               1.0289958953666176E-02
               1.1312296048869182E-02
               1.1760035144314035E-02
               2.7137779412047904E-03
               9.9659576363651632E-05
               8.6302668400208634E-04
               8.3559525278817360E-04
              -3.7168641701729784E-04
               2.6346701154644357E-04
               9.7719385180963618E-04
               3.5554252865182814E-03
              -8.6478811745712633E-03
               6.7826754279713209E-04
              -1.8227972592777040E-06
               9.6354024826588998E-04
               4.4329825817076589E-05
               8.3784123108395739E-04
               5.6259689795972291E-03
               1.9173224051970150E-04
              -3.4677240286753582E-03
              -2.4890182494164792E-03
               1.1570956038789645E-03
               2.8190275368635519E-03
              -2.3682407265879235E-04
               1.4668852744526650E-03
              -1.8112097822036916E-03
              -1.4294539444826919E-03
               1.7112739823904989E-03
              -2.8975751323139952E-03
              -4.5963750370994560E-04
               1.5204283479602473E-03
              -1.3378497579437678E-03
              -3.3091240744660179E-04
               5.1419785369309970E-04
               5.8004817715402019E-04
               1.7965802972274025E-03
               3.4274584210410518E-03
              -6.8893237380380265E-04
              -3.5495789141057679E-04
              -5.5776564918912737E-04
               1.7652537806927702E-03
               2.0263909447850183E-03
              -3.4688297841409320E-04
              -1.4716207194602829E-03
               1.7283140364558882E-04
              -2.3387033267889144E-04
               9.5592658843039616E-05
              -1.0237921079633940E-03
               9.0111626803344156E-04
              -6.7561346599349860E-04
              -7.1136606480016811E-04
               1.4137324833150410E-04
              -9.3709297041677801E-04
              -5.4607931997958535E-04
               3.6087754994664173E-04
              -5.5695064827913096E-04
              -3.0821359699727455E-03
              -6.2867927725671611E-04
               4.3556269036185580E-04
               2.5613691451659083E-03
               2.9358106210790502E-03
              -5.7304080899080721E-05
               7.9949301825138432E-04
              -4.5176775147642298E-03
               1.1803024174649628E-03
              -4.5353289585374176E-04
               2.1602896263068611E-03
               6.3994371809841495E-04
              -6.0404678787539449E-04
               3.3353380902836319E-04
              -1.5655351246088433E-04
               5.9765106550151625E-04
               1.6863538750253346E-03
              -2.8038169622014047E-04
               2.1716298520783714E-03
              -1.9951581229309400E-04
              -1.5027184684561465E-04
               1.0886309150515555E-03
               1.7161682302505436E-03
              -7.2233155633511870E-04
               3.6374506912774786E-04
              -4.5397998764463553E-04
              -1.4936100394688449E-03
              -3.9686164144600317E-03
              -1.4317106741171546E-03
               2.0562764795181280E-03
              -1.1314490574415518E-03
               9.3235204349106915E-04
              -1.4496886412425024E-03
               3.6895479314658075E-04
              -6.4317545115224056E-03
               1.3333058114247654E-03
              -7.3284278787198905E-06
               3.5673190637327417E-04
              -5.8444024233182700E-04
               9.3129266663119340E-04
               2.9444294706368790E-04
               4.8269010602692278E-04
               2.1997471202556655E-04
              -3.0982880081441098E-03
              -1.7950676573892096E-04
              -1.5559327182428290E-03
               7.5720842192746724E-04
               4.1415280771857609E-04
               3.9948002798886658E-03
              -9.8146371492164740E-04
              -1.1756850895631712E-03
               1.7686833778334326E-03
              -3.0397207245121405E-03
               9.4351822592863199E-04
               3.2114120351807475E-03
              -3.1622195587752392E-03
               1.5140072603510857E-03
               1.2914211038792369E-03
              -1.5367387890117847E-03
               2.5837005650673631E-03
               3.4384389809581514E-04
               3.7116217765647918E-04
               1.7568117306091390E-03
               1.7265972722606817E-03
               8.9961070581116907E-04
               7.2469474574007691E-04
               4.2873568562123389E-03
               1.6772907446232872E-03
               4.9452805748604455E-03
              -3.7026446753992397E-03
               3.0223267983237865E-03
               5.8031325068891987E-04
              -1.5954804719771969E-03
               2.4689912992798000E-03
              -3.3225767413248408E-05
              -2.0176296542752446E-03
               1.8806227236438677E-03
              -2.6375405449435726E-04
              -4.1819319100594717E-05
               7.3610194386613550E-04
              -1.0003627248275375E-03
               2.6305963996175385E-03
               1.2195378107894205E-03
               2.1169094637523687E-03
              -5.1954376513268727E-04
              -5.7946315777584740E-04
               8.4414251836586389E-04
               6.1733592267270397E-04
              -5.6555903030064796E-03
               2.7568771203603207E-04
               5.5594802348706636E-04
              -1.4400650674579255E-03
               1.1051322693685119E-03
              -2.0747071264258614E-03
              -1.4752074292977140E-03
              -1.3548848406313382E-03
              -3.9866291010998600E-04
               1.6201580477403260E-03
               3.6889474369350054E-04
               1.8126243455805348E-03
               6.7586226610352376E-03
               2.3445740489794094E-02
               7.0104675297268859E-03
               1.6393982001580471E-03
               2.4761198307577995E-03
               1.4251437724256402E-03
               2.4150608021015763E-03
              -1.8382456466440884E-03
               5.1071775205124769E-03
              -2.8625248106538249E-04
               3.0052299414435866E-03
               3.2491321847196420E-03
              -5.9764144268205019E-04
              -1.7320758366797023E-03
              -1.8824218256110908E-04
              -7.3286435150405052E-03
               2.9169647830323050E-03
               1.2889324610441601E-03
               2.9558491274904377E-04
               1.6741468555029650E-05
              -2.0366115703586924E-03
              -4.3433876704123363E-04
              -5.3285627858301165E-04
              -1.2385898197878390E-05
               1.9422352000907279E-04
              -3.3974795509298967E-04
              -2.2275852559029306E-03
               1.2815185521306677E-04
               5.0809063859138322E-05
              -2.2652020696715975E-03
              -2.1304593709433875E-03
               3.1011192510970473E-04
              -7.5459225513192394E-04
              -3.9598378887837943E-05
               2.5533007306868887E-03
               3.9812970163567447E-04
               9.2820194659140902E-04
              -2.2026537654748239E-03
              -5.3723662555136859E-04
               2.4421707002652720E-03
               1.8879221779584491E-04
               1.1287368117785658E-03
               2.6682630663633997E-03
               4.9372124636780173E-04
               7.4821494464309473E-04
              -1.9376978372639777E-03
               3.6424696100850473E-03
              -1.9306020040366224E-03
               7.4252291064991649E-04
               2.5964722853916546E-05
              -3.6686342779703368E-04
               2.3280672698962270E-03
               9.6655894647587062E-04
               2.3289985053893893E-03
               7.8499140019174825E-05
               6.0121515469673350E-04
               9.0847515533214673E-04
               6.8768624826243238E-04
               3.5172242588833364E-03
               1.4257942279631319E-03
               2.2240728317062248E-03
              -1.4745677062385544E-03
              -1.8671680251337677E-03
               1.1733428510469998E-03
              -8.7208887877780598E-05
              -2.2134455740293067E-04
              -5.2365708901768229E-04
              -3.6523098477916015E-04
              -4.3600826650099823E-04
              -3.1740746368246553E-03
               1.7679107186362847E-03
               4.1434877985596148E-04
               2.0135057638400473E-03
              -4.2390807888515342E-05
               1.0171753276293244E-03
              -2.8701408112736761E-04
              -1.6060741082600631E-03
              -8.4810324382835096E-04
               1.1860971574848382E-03
               9.6056004485677048E-04
               3.8794637289396919E-04
               2.4349926574567232E-03
               1.2904940563800049E-03
               3.0239732324495932E-04
              -2.3689930322150557E-04
               7.3839689462790702E-04
              -2.6162759148533818E-03
               6.6457648349441242E-04
              -1.1856401546418412E-04
              -8.0907233056164650E-04
               7.3349058237441643E-04
              -1.0306565001417384E-03
               1.8579403174596592E-03
              -7.3144189342616637E-04
              -6.8839365176810268E-06
               5.4869856327205728E-04
               1.3823894193775240E-03
               5.4636186580122388E-04
              -1.6378675789944970E-03
               1.5027793239734427E-04
              -8.8967557202763507E-05
               1.4455167910809904E-03
               9.1035115205952263E-04
              -2.8327646113844568E-04
               5.9108871729293222E-04
               1.5903673180264783E-03
               4.6362202111639613E-04
              -4.9560653797887575E-04
              -1.5933997210564690E-03
              -6.4748706810544585E-04
               1.0590152637461971E-03
               1.8507619132706184E-03
              -1.6697013894842300E-03
              -1.4244352521413160E-03
               5.7870901520553396E-03
               1.2719482203971484E-03
              -5.7327678715418376E-03
               5.9765296353788448E-05
               1.8488984241321936E-03
              -8.4595930382192852E-04
              -2.2588032244577613E-04
               3.5771123853871182E-04
               2.9931361939706185E-04
              -3.8715063829993256E-03
               9.2056157479217043E-04
               1.1884737135363932E-03
              -2.4598239606295281E-03
               1.6491812170928422E-03
              -2.1514088464234942E-04
              -1.8519947378359681E-03
               3.7050621417924257E-03
              -1.4200382113116181E-03
              -2.1537445587118250E-03
              -1.1563423745951213E-03
               1.5816820693898096E-04
              -4.2904873331918378E-03
               6.3052943752396218E-03
               5.7906392818885444E-04
              -4.5462281875789683E-04
               9.7986052101931204E-04
               1.7649799935009081E-03
               3.2258088437914019E-03
              -5.4639503046986641E-04
               6.5480015286081784E-06
              -2.0180248626482968E-03
              -3.5711641562226459E-03
              -1.3431091592045633E-03
              -4.3966330915361598E-04
              -1.9146450619139666E-03
               1.1567067926568600E-03
               3.9294041116502438E-04
               7.0216101507308783E-04
              -1.5174784681654904E-03
              -2.5527604512082394E-03
               3.0676172653703346E-03
              -9.6122545490602974E-04
              -6.2934485487575265E-04
               2.0229148158855148E-03
              -1.2868493949195402E-06
              -2.1555399094007198E-03
              -1.4770033180002543E-03
               3.6508550451052543E-03
              -8.0608381193133811E-04
              -1.5831749412300271E-04
               6.3703824856727520E-04
               2.4282992325070331E-04
              -2.4230376800659700E-03
              -3.2890348843196769E-04
               1.1175599063090204E-03
               3.5707986089165733E-04
              -1.1639144955675345E-03
               2.4973937847066021E-04
               7.8938870842756121E-04
               2.1587330813663628E-03
              -1.3372361975985024E-04
               6.1713861015269382E-04
               2.2905088118818534E-04
              -1.7247876150268170E-03
              -2.8346250545201392E-03
               2.2796355346111712E-03
              -1.9489362909331223E-03
              -1.0904730730412814E-03
              -8.1098606391891213E-04
              -1.1080168038799135E-03
               4.7834062871477344E-04
              -1.6226011750857775E-04
              -4.2006977896823390E-06
               2.5436817143927480E-03
               1.2720881483011494E-03
               2.5179405899480546E-03
              -1.9812928482581082E-03
               4.6421849422601316E-03
               8.2758521633004485E-04
               1.0293046811161405E-03
               9.7105213193269759E-05
              -1.7980963081272938E-04
               1.4403227589662494E-03
              -1.8070488414592071E-03
              -1.7617732261908251E-03
              -1.7799595622035207E-03
               1.0823380453158543E-03
              -2.5723386245966409E-03
               5.8832607007534084E-04
               2.3690430540808994E-03
              -1.3488983275779900E-03
              -4.6213369205882273E-04
              -2.2242202815900185E-03
               1.0338855733844788E-03
               9.7966639154853027E-04
              -8.2064963567363342E-04
               2.6117781011146340E-04
               4.9958183854730692E-04
              -2.8175685231200589E-04
               4.1936067825344584E-04
               1.2546445378923874E-03
               1.9521379762632839E-04
               4.8734906110221648E-04
              -1.9117279788506182E-04
               7.9501914995801443E-04
               2.0884992278697272E-03
               8.7925071747391528E-04
               3.9682534462301129E-04
               1.9892554384947137E-03
              -7.3499495713983114E-04
              -5.6682358801461556E-04
               7.3985466677898301E-04
              -3.3292236077228851E-03
              -1.2300653098107957E-06
              -1.0378788939989466E-03
               1.5316546861492619E-04
              -1.6587889136157837E-03
              -9.6116717263911499E-05
               1.3806026845604750E-03
               4.3529237345054427E-05
               8.7941769436233972E-04
               3.9052184592927798E-03
               3.1078038862085828E-03
               5.4079090479640846E-04
              -1.6920806641047966E-03
               1.1355957985175406E-03
              -1.6374223371048388E-03
               3.1973406538944094E-04
               7.1432650558045862E-04
              -6.3413040755968977E-04
               3.3142188549735511E-04
               1.8080205992315881E-04
              -1.3327313770432835E-03
               8.6723328755979219E-04
              -1.2180819273782915E-03
              -4.5924434826135761E-04
               1.3935370169751424E-04
              -3.1998200752415703E-03
               1.0801745809425954E-04
               7.4173801056905706E-04
              -4.5497658379964172E-04
              -7.4533513568940575E-04
               3.3836978065377170E-03
               1.8664915124190107E-03
              -4.0608023779150227E-04
              -1.5096393544920992E-03
              -7.8312039608110433E-04
               2.7596489528496711E-04
              -1.9822946375584764E-03
              -1.5197248024341524E-03
              -8.6296140380183570E-04
               1.3174649677530339E-03
              -6.6522000907542564E-04
               2.2663605608762736E-03
               1.4682813362367569E-03
               3.9625010861005163E-04
              -7.0069357477620369E-03
               2.6159834040840016E-03
              -1.5667233501409055E-03
               1.7841013990319135E-04
               1.7700448018625895E-03
              -3.1959640767879698E-04
              -1.2960645799222957E-03
              -7.7895086176350326E-04
               1.8737770502589913E-03
               1.1606392937413240E-03
              -2.0387957158033401E-03
              -1.4979202338367081E-03
              -3.1713691327105766E-04
              -4.6982782562449003E-04
              -1.4746719485642544E-03
               2.2408341045324735E-03
               5.9964116934590171E-04
               5.1373409123646723E-04
               1.3063131589439753E-03
               9.9715701519839488E-04
              -3.1398459112495173E-04
               1.1223387017907760E-03
              -2.4568047299319861E-04
               5.4575437729834976E-04
              -4.2583143330344039E-03
               3.0886986571205897E-03
              -2.0294963500389580E-04
               2.8020468398948914E-03
               2.0491740722488648E-03
               8.5450742179289817E-05
               2.8300419131200368E-03
              -1.9002425252760680E-03
               1.0242080299620222E-03
               1.0074508995107840E-03
               2.1854455862574782E-03
              -2.5655199601093653E-03
              -1.9796569550038518E-03
               1.7626497927488471E-03
              -9.3495980349473100E-04
              -6.4579788665842359E-04
              -7.2455556018746108E-04
              -8.6127962053047396E-04
               4.1319543461013905E-05
               2.8592101807202864E-03
              -3.8577783336566926E-03
               6.7245175223461734E-03
               1.5903050481201222E-03
              -5.3138684550198779E-03
         &END THERMOSTAT_ENERGY
         &RNG_INIT
Wiener process for Thermostat # 1        1 F T T  -9.4455754177258011E-01        2348331147.0        3777018355.0        3145712536.0        4127039279.0        2527941723.0        3309909880.0             12345.0             12345.0             12345.0             12345.0             12345.0             12345.0             12345.0             12345.0             12345.0             12345.0             12345.0             12345.0
Wiener process for Thermostat # 2        1 F T T  -6.6567219377416598E-01         660413696.0        1772065333.0        3328603104.0        2305136696.0        1109092685.0         734403532.0        3692455944.0        1366884236.0        2968912127.0         335948734.0        4161675175.0         475798818.0        3692455944.0        1366884236.0        2968912127.0         335948734.0        4161675175.0         475798818.0
Wiener process for Thermostat # 3        1 F T T  -2.4927437759125226E+00        2799667801.0        4013445600.0        1435775338.0        1950980165.0        2105362941.0        1785064363.0        1015873554.0        1310354410.0        2249465273.0         994084013.0        2912484720.0        3876682925.0        1015873554.0        1310354410.0        2249465273.0         994084013.0        2912484720.0        3876682925.0
Wiener process for Thermostat # 4        1 F T T  -3.8600911963865669E-01         931861021.0        3696860246.0         731743283.0        3618483891.0        2331037287.0        1320126240.0        2338701263.0        1119171942.0        2570676563.0         317077452.0        3194180850.0         618832124.0        2338701263.0        1119171942.0        2570676563.0         317077452.0        3194180850.0         618832124.0
Wiener process for Thermostat # 5        1 F T T  -8.8053691035087156E-01        1092892209.0        3893759804.0        3075271164.0        4175969507.0        2687885149.0        2528323593.0        1597262096.0        3906379055.0        3312112953.0        1016013135.0        4099474108.0         275305423.0        1597262096.0        3906379055.0        3312112953.0        1016013135.0        4099474108.0         275305423.0
Wiener process for Thermostat # 6        1 F T T  -2.3456113318618405E-01          20041063.0        1137856048.0        2911180688.0        2701264900.0        3631430548.0        3081173778.0          97147054.0        3131372450.0         829345164.0        3691032523.0        3006063034.0        4259826321.0          97147054.0        3131372450.0         829345164.0        3691032523.0        3006063034.0        4259826321.0
Wiener process for Thermostat # 7        1 F T T   2.2360949266658575E-01         111496720.0        1222363620.0         594843867.0         560327491.0        2260753812.0        1018929273.0         796079799.0        2105258207.0         955365076.0        2923159030.0        4116632677.0        3067683584.0         796079799.0        2105258207.0         955365076.0        2923159030.0        4116632677.0        3067683584.0
Wiener process for Thermostat # 8        1 F T T  -1.3909163090044818E+00        4209724401.0          98859424.0        2158710677.0        1836275507.0        2832954631.0         702223321.0        3281794178.0        2616230133.0        1457051261.0        2762791137.0        2480527362.0        2282316169.0        3281794178.0        2616230133.0        1457051261.0        2762791137.0        2480527362.0        2282316169.0
Wiener process for Thermostat # 9        1 F T T   1.4458844854717515E-01        1566779572.0         564034742.0        2165663404.0        1725089669.0        2450828420.0        2987353704.0        3777646647.0        1837464056.0        4204654757.0         664239048.0        4190510072.0        2959195122.0        3777646647.0        1837464056.0        4204654757.0         664239048.0        4190510072.0        2959195122.0
Wiener process for Thermostat # 10       1 F T T  -1.8044521233311703E-01        3645708281.0         890443885.0        1307011607.0         812617069.0        3850230368.0        4249682369.0        4215590817.0        3862461878.0        1087200967.0        1544910132.0         936383720.0        1611370123.0        4215590817.0        3862461878.0        1087200967.0        1544910132.0         936383720.0        1611370123.0
Wiener process for Thermostat # 11       1 F T T   7.3365870303465655E-02         255064635.0        2979643125.0        3713304513.0        3747532412.0         797965951.0        1318186882.0        1683636369.0         362165168.0         814316280.0         869382050.0         980203903.0        2062101717.0        1683636369.0         362165168.0         814316280.0         869382050.0         980203903.0        2062101717.0
Wiener process for Thermostat # 12       1 F T T  -2.1090861692252161E+00        1140711497.0         565580939.0        3872537102.0        2977251499.0        3418623491.0        3405998517.0         272317999.0         166758548.0         310112982.0         201045826.0        1680231254.0         118290799.0         272317999.0         166758548.0         310112982.0         201045826.0        1680231254.0         118290799.0
Wiener process for Thermostat # 13       1 F T T   9.5788552894723733E-01         427320152.0        2030493858.0         727746558.0        2541422171.0        2940543871.0         986208447.0        2245755202.0        1652682525.0        2865544364.0         721509566.0         209733568.0         592362218.0        2245755202.0        1652682525.0        2865544364.0         721509566.0         209733568.0         592362218.0