 # Version information for this restart file 
 # current date 2024-11-28 09:02:46.457
 # current working dir /scratch/work/courses/CHEM-GA-2671-2024fa/students/wx2237/comp-lab-class-2024/Week12-IntroAIMD/Runs/Proton
 # Program compiled at                              Sat Dec 12 18:27:15 EST 2020
 # Program compiled on                                         cs001.nyu.cluster
 # Program compiled for                                                nyu-intel
 # Source code revision number                                       git:8c64c6e
 &GLOBAL
   PRINT_LEVEL  LOW
   PROJECT_NAME proton_aimd_1ns_every0.5fs
   RUN_TYPE  MD
   WALLTIME 21600
 &END GLOBAL
 &MOTION
   &GEO_OPT
     OPTIMIZER  BFGS
     MAX_ITER  100
     MAX_DR     3.0000000000000001E-03
     &BFGS
     &END BFGS
   &END GEO_OPT
   &MD
     ENSEMBLE  NVT
     STEPS  2000
     TIMESTEP     4.9999999999999994E-01
     STEP_START_VAL  103
     TIME_START_VAL     5.1500000000000036E+01
     ECONS_START_VAL    -1.1027144142478624E+03
     TEMPERATURE     3.0000000000000000E+02
     &THERMOSTAT
       TYPE  GLE
       REGION  MASSIVE
       &GLE
         NDIM  5
         A_SCALE     1.0000000000000000E+00
         A_LIST     1.8595758612559999E+02    2.7263853498399998E-01    1.1526100454610001E+01   -3.6414578262600003E+01 \
             2.3173375816020001E+02
         A_LIST    -2.7809524712060002E-01    8.5951591808710006E-05    7.2189048017650004E-01   -1.9844539343859999E-01 \
             4.2409257583420001E-01
         A_LIST    -1.4825808131210000E+01   -7.2189048017650004E-01    1.3590902121280000E+00    5.1498896280349999E+00 \
            -9.9949268450990001E+00
         A_LIST    -1.0372189126880000E+01    1.9844539343859999E-01   -5.1498896280349999E+00    2.6661910891169999E+01 \
             1.1507715495310000E+01
         A_LIST     2.1801346360420001E+02   -4.2409257583420001E-01    9.9949268450990001E+00   -1.1507715495310000E+01 \
             3.0958394565589998E+02
         &THERMOSTAT_ENERGY
              -2.7033581125571074E-04
               7.7489954951401161E-05
              -7.5617817294903978E-04
              -1.3799900659799849E-03
              -1.2549657453718439E-03
               3.8171491035725760E-03
              -3.2767359662202664E-03
               8.2399906557681000E-04
               2.4243460338748009E-03
               6.6526031864843076E-04
               3.6820058206802212E-03
              -4.7311112992222767E-04
               3.3093361711973098E-03
               4.4634556552168868E-04
               2.1448905771265085E-03
              -1.7779789476867463E-03
               9.3848085540043690E-04
               9.9041592303415206E-04
               5.3704481914840905E-05
              -5.9449037953746529E-04
              -3.6944801975601028E-04
               2.5220783296323215E-03
              -7.9823254572742675E-04
               2.2573754779179039E-04
              -2.8136582963516330E-05
              -1.8176373880892361E-03
               2.5549868088360595E-04
               4.3845688029206184E-04
               4.4873486559184912E-04
              -2.6569099673892020E-05
               1.0276476361846629E-03
              -1.1175135909271892E-03
               1.0299278091799526E-03
               1.6842547798787640E-03
              -4.1543969438296545E-03
               2.1619878343961891E-03
              -1.5878834966234849E-04
              -1.2351047194302423E-04
               2.4654112752807563E-04
              -4.4132225977783543E-04
               4.5967788348740294E-03
              -1.0516503343657004E-03
              -2.3668227541214458E-04
               3.1447756418486175E-03
              -3.3794078783768817E-03
               1.0089905962996954E-03
              -1.9494197365813671E-03
              -1.3940213404704200E-04
              -2.7119640015600757E-03
               2.7734949603888919E-04
               1.3193907078425018E-03
              -1.0832037376180428E-03
              -7.9788519878836491E-04
              -1.7259404465395806E-04
              -2.6758434431204433E-03
              -6.2666594531763449E-04
              -1.0734790221077443E-03
               1.9827726690474050E-03
               8.2758551077126679E-04
              -3.3943309118867966E-03
               1.5530927614767947E-03
               4.1604846602386891E-03
              -5.7385122513398936E-04
               1.5918575537363648E-03
              -2.1650444072490718E-03
               1.0953969239126779E-03
              -2.0768191345401760E-03
               3.0526202060949369E-03
              -1.8585791994186057E-03
               1.7288454361829062E-04
              -1.6346990876715767E-03
               1.5012937066880285E-03
              -9.6254490962087316E-04
               3.7600383957977091E-04
               8.2773168268340087E-04
              -3.2313851736553967E-03
               1.4134484897626084E-03
               3.3973669742766435E-03
               3.4036927350372358E-03
              -2.2421982482161249E-04
              -1.4137447453722155E-03
              -4.9478370606152538E-04
               7.3558637202246024E-04
              -4.8239299736212377E-04
               2.0270159880668641E-03
              -2.1739742342853012E-03
              -2.2014074408927987E-03
               2.1310893815279530E-04
              -2.2107051506525056E-04
              -5.3522880522910855E-04
               2.0874728501527676E-03
              -2.4110109225404719E-03
               2.1475736759817721E-03
              -3.5352824588451978E-03
              -2.7094704186986915E-03
              -3.1078262842667583E-04
               9.1282460262551233E-04
              -2.0460303631718302E-03
               4.1482220844155147E-04
               2.0958250724799157E-03
               6.2558524510033294E-03
               1.2288421583626123E-03
               4.6989142461012137E-04
               1.8873049767674833E-02
               5.5160807329719119E-03
               9.4798368344050574E-03
               1.1399549967771479E-02
               9.9841980327235094E-03
               2.8949147501218567E-03
               2.1526013766129008E-04
               1.1687615221673648E-03
               5.0914206794639046E-04
              -1.0008842849217499E-03
               5.4441229600395375E-04
               6.3566644606050733E-04
               3.4284934074202489E-03
              -8.8251412912705145E-03
               1.5028496441065221E-03
              -2.9853812626818134E-04
               5.7677713721364886E-04
              -3.4234309197791487E-05
               8.6728459594026096E-04
               5.1374588701300905E-03
               4.7502111367228681E-04
              -3.7587428308093083E-03
              -2.5204429762758032E-03
               7.9298953541264415E-04
               2.7972051526230961E-03
              -1.5968348190169214E-04
               9.3955489622027388E-04
              -1.8477389214204846E-03
              -1.5606892572126840E-03
               1.6697545452732923E-03
              -3.6621954456541326E-03
              -5.0709459097172634E-04
               8.1268375714301248E-04
              -1.3749273305982590E-03
              -4.6716702063090019E-04
               3.7104033532863411E-04
               1.3018225611340353E-03
               1.7801767860880946E-03
               2.5499748442618575E-03
              -6.2954290024038877E-05
               9.5473971853457640E-05
              -8.5388371731917286E-04
               1.1259990134341621E-03
               2.2682899799057470E-03
               2.0899019031233397E-04
              -1.7391871133757449E-03
              -4.7642370059327547E-04
              -2.4973705811743381E-04
              -8.6951430534528199E-04
              -9.1105200896726278E-04
               8.8352219824268906E-04
              -1.4134232422594764E-03
              -3.9464708276725201E-04
               2.0359985297381468E-04
              -2.1096757294043151E-04
              -1.6169469102867724E-06
               1.5293241774275049E-03
              -5.2503145482124015E-04
              -2.6831155930451488E-03
              -7.1885799713329211E-04
               3.5911349822742410E-04
               2.4979428123493856E-03
               2.9778173851157616E-03
               1.0448930831233269E-03
               7.1717606969816578E-04
              -4.5083554471427234E-03
               1.1544335742140058E-03
              -9.0321487480238001E-04
               1.3474061288764347E-03
               5.0743031483722141E-04
              -4.1003956546618387E-04
              -3.7891865975227040E-04
              -3.3148411490449239E-04
               6.0344077983941864E-04
               1.7560386937583688E-03
              -7.4118112201523119E-04
               1.1463998794386484E-03
              -4.6788483184306482E-04
              -4.2749739299389501E-04
               4.1366329759361814E-04
               1.7139495729993296E-03
              -7.8970973655193705E-04
               2.5470632044886324E-04
              -5.7680253222018758E-04
              -1.7079342135070872E-03
              -4.0699119689823378E-03
              -9.6816833027363531E-04
               1.6204680899040028E-03
              -1.0418488439664848E-03
               5.4528559651015362E-04
              -1.4573229450743912E-03
              -6.7019588402559725E-05
              -7.7289396156107470E-03
               1.0247163209165502E-03
              -7.3193285941786307E-04
               4.9921271217832897E-04
              -6.0995595958033817E-04
               9.7045830829427769E-04
               3.7170909636551351E-04
               4.7503330895037947E-04
               2.0050103605409199E-04
              -5.2257645405824650E-03
              -2.6185799371038340E-04
              -1.6196488222280604E-03
               1.6035557357426281E-03
               6.8439888964106092E-04
               4.3320462684812988E-03
              -7.9424458114362253E-04
              -1.2105451672973716E-03
               1.7302835979008131E-03
              -2.5638666670734552E-03
               7.1479304600806002E-04
               2.3130166945829859E-03
              -5.7595064157207193E-04
               1.5990335234740019E-03
               1.3137886380234062E-03
              -1.8572920108437538E-03
               2.7088069341914423E-03
              -4.7181930691409608E-05
              -5.9676661347520042E-04
               1.8435363407017288E-03
               1.5737421539463311E-03
               9.0417135487493505E-04
               6.4420277257817653E-04
               4.6194293728231053E-03
               2.1728299353540076E-03
               5.5440501878541958E-03
              -3.0441871073191170E-03
               2.7834975038976309E-03
               5.5996741466369463E-04
              -1.8635075249309257E-03
               2.3433456792767990E-03
               7.4789690819263184E-04
              -2.0718422903094023E-03
               1.7765477079780955E-03
              -2.7851665522677407E-04
               1.4233285267065691E-05
               6.8902671089003816E-04
              -9.4776414279550939E-04
               2.5883523156625403E-03
               1.4775297024509759E-03
               2.5488157094409949E-03
              -1.0743105360620404E-03
              -4.0846140195936129E-04
               9.5790097447097627E-04
               2.5981733782363958E-04
              -4.7215477562468945E-03
              -1.0155661773669398E-03
               5.4826956906756357E-04
              -1.0985367398281009E-03
               1.0377894707951393E-03
              -2.0547044964451876E-03
              -1.2019181544803967E-03
              -1.4596792423462225E-03
              -5.5379289828938710E-04
               1.6318522984364908E-03
               2.0761935927944434E-04
               1.4269834986942696E-03
               7.3533563146127986E-03
               2.3388680554662169E-02
               6.9676398024981325E-03
               1.7337545319936784E-03
               2.6071223573927824E-03
               1.7443542170744572E-03
               1.9990051038475056E-03
              -1.5316048231858561E-03
               5.0584041544906987E-03
              -1.3186586301050629E-03
               1.4560794752791345E-03
               2.7144314846632629E-03
              -5.6672834782585477E-04
              -2.0632845696850399E-03
              -1.8477548546344099E-04
              -7.6254678632777925E-03
               2.9201067711251364E-03
               1.4514574881454366E-03
              -1.0531495029076688E-05
               1.5421622551044380E-05
              -2.0793013818689171E-03
              -9.7148228885041025E-04
              -4.0120729013093723E-04
              -3.7064737264297596E-05
              -1.3512946756487457E-04
              -9.0107714437969116E-04
              -2.5548915169301533E-03
               3.7321371504087379E-04
              -3.3273603365687067E-04
              -2.4605339763827559E-03
              -2.5838498987684226E-03
               4.0031571648990760E-04
              -3.7258853804529422E-04
              -5.1998546821147403E-05
               2.4063152109694442E-03
               2.2880007188807826E-04
               1.1893291408431985E-03
              -2.1882218100636886E-03
              -6.3837273789387394E-04
               2.4402656984795841E-03
              -1.1280706893222330E-05
               1.5858738973497037E-03
               3.4890156106445603E-03
               4.1709983418755929E-04
               6.6678442684693575E-04
              -1.9981776402809431E-03
               4.9809078812180921E-03
              -2.6494857531382701E-03
               7.8362353207245576E-04
               2.7631540759436311E-04
              -3.2823958909603565E-04
               1.9211563391181566E-03
               4.0847105658054503E-04
               2.3609181583287321E-03
               1.4145166003388704E-04
               4.8577641490085775E-04
               5.0644725507370016E-04
               2.0392294993860926E-04
               3.4502778098340135E-03
               1.7136755307048460E-03
               2.3047899162800690E-03
              -2.3634933348750061E-03
              -1.8136307172956999E-03
               1.2726611436327129E-03
               3.7203642011313418E-05
              -1.4639221787652618E-03
               4.1293218637779414E-04
               1.8599752763616217E-04
              -4.5957998864393820E-04
              -3.3875708558057673E-03
               1.9029290841470804E-03
               3.9351451597036433E-04
               2.0071402393699394E-03
               6.4796405280519886E-07
               1.0979398515556667E-03
              -3.8916186303422016E-04
              -1.3809428832041383E-03
              -2.4279508316601744E-04
               1.3013509032078696E-03
               9.9278249245368221E-04
               3.4429930429224462E-04
               1.6842785900986091E-03
               1.5257512191323597E-03
               3.0454978551414352E-04
              -6.1977375953753357E-04
               1.0998978914538021E-03
              -2.2296472503058255E-03
               6.0909585375614069E-04
              -5.7790807408996119E-04
              -3.8294937692671927E-04
               2.8264925450929113E-04
              -6.2833069138067718E-04
               2.2813783195406875E-03
              -8.1913781157426932E-04
               1.5045459313744159E-05
               7.6333617371293779E-05
               1.2655080575911554E-03
               5.0107649494978421E-04
              -1.9612498158797262E-03
               1.6064080716240016E-04
              -3.1024345274683544E-04
               1.4726044944929901E-03
               1.0226508618604135E-03
              -4.9127731889261959E-04
               4.7280166996171400E-04
               1.7281162592468577E-03
               3.4348350614914051E-04
              -5.4920834805709088E-04
              -2.0364316742759458E-03
              -7.0521328733037553E-04
               1.1922336251574519E-03
               1.6346659548910989E-03
              -1.3541453542495491E-03
              -1.2000884861134761E-03
               5.8443888266962113E-03
               1.5644880360024000E-03
              -5.7585469083090007E-03
               4.9459045513058547E-05
               2.0646458757911058E-03
              -1.1672637590902119E-03
              -1.9969327155961776E-04
               2.0171955178446805E-04
               3.4544116209089652E-04
              -4.1681984224701887E-03
               9.0808196832493535E-04
               1.2159560295082997E-03
              -2.6637210813358304E-03
               1.1265646070411561E-03
              -3.6640215654114874E-04
              -1.0222108740004219E-03
               3.5662442547898568E-03
              -1.2207860742802937E-03
              -2.1498607532652383E-03
              -1.1635650451744914E-03
               3.1766967005408364E-04
              -4.0252613912640728E-03
               6.4090334352615852E-03
               8.2941609035408297E-04
              -1.0326239583090136E-03
               4.6796412691351352E-04
               1.6738975412540788E-03
               3.4512329560913361E-03
               2.1774859879751589E-04
               6.5916326088931394E-05
              -2.5580429161927744E-03
              -3.3611385859370411E-03
              -1.2855381530355353E-03
              -4.9803849543237667E-04
              -8.2926847159197356E-04
               1.1701784731257061E-04
               7.7829880698956921E-04
               6.0895608951916174E-04
              -1.3683476912828754E-03
              -2.1238608128674079E-03
               3.1005339509026317E-03
              -8.2959460157587452E-04
              -5.1027936296979765E-05
               9.3200989399231803E-04
               1.9686665060202565E-05
              -1.6134017712650514E-03
              -1.5572575429504290E-03
               3.8270086530784782E-03
              -7.7228463007236227E-04
               1.9987962093856058E-04
               6.4131256766450319E-04
              -1.6560378738691441E-05
              -2.3834343060233597E-03
              -1.4506691680792806E-04
               5.2274172799709887E-04
               1.4146254702992111E-04
              -5.8898627704973298E-04
               1.1296226622212271E-04
               1.0437824049131805E-03
               1.8509978309255587E-03
              -9.1019324370304072E-05
               6.4653921118178453E-04
               2.5866996399591938E-04
              -2.1246329015292120E-03
              -2.6989679323480313E-03
              -2.6066047175648350E-04
              -1.8118503199089568E-03
              -1.2973552695519212E-03
              -5.6466493177280159E-04
              -1.1484287121298132E-03
              -5.7474103890181897E-06
               8.6403383409738421E-04
               8.6347450087348270E-05
               1.7684691053990057E-03
               1.1980120570820008E-03
               3.0149645923116283E-03
              -2.0102580538941045E-03
               5.3466075475772585E-03
               8.4863936511295689E-04
               9.8176701500569149E-04
              -7.6980345381214607E-05
               6.6067327440404687E-04
               1.6342111676276977E-03
              -1.6441932805876559E-03
              -1.6207760443422644E-03
              -2.3243175660260210E-03
               1.0652857363016679E-03
              -2.3699855511840392E-03
               1.0958374809583698E-03
               2.5603272082181856E-03
              -1.2604227550260753E-03
              -1.9101731164939838E-03
              -1.5057279556266265E-03
               9.1832862843805652E-04
               8.5727051328037354E-04
              -5.4262877279422344E-04
               3.9749513921816216E-04
               3.0215411843810191E-03
              -3.8513700602060022E-04
               1.3216220766082171E-04
               1.6079413416888674E-03
               2.7807538968055244E-04
               6.4441436845962029E-04
              -7.2089317085338896E-05
               6.8722628836273602E-04
               2.1470607024108882E-03
               7.4447686029100900E-04
              -1.5906147419618172E-05
               1.4525457734187439E-03
              -1.0692202768054688E-03
              -1.4513611570388580E-03
               8.2144507533025296E-04
              -3.5322354278335801E-03
              -7.8503770020872088E-05
              -9.2143471707427360E-04
               9.4785061978496345E-05
              -1.0267704536291709E-03
               2.8106061956347569E-05
               1.2093231997254944E-03
               3.2885432528987089E-04
               4.6219160875050566E-04
               3.9091290220043800E-03
               3.2042570281009728E-03
               4.8118342999246811E-04
              -1.6412206383088781E-03
               1.1555786227198806E-03
              -1.5615391550726414E-03
               7.8275396858898275E-06
               1.2576487088202303E-03
              -1.2953438054878912E-03
               4.8723016420140042E-04
               1.6968944591920829E-04
              -1.3081965249891042E-03
               4.5099655938861784E-04
              -1.0274287287531370E-03
              -1.1243950188861217E-03
               7.4815264540639267E-05
              -2.4378967176656094E-03
              -2.1635013098050853E-04
               1.0093828474014364E-03
              -5.0251283090074186E-04
              -7.1557275133998549E-04
               4.2711728112220255E-03
               1.6901809230391116E-03
              -3.6275320240998466E-04
              -1.4644228877603604E-03
              -8.1072015912149963E-04
               5.7615937478832410E-04
              -1.7575721259440618E-03
              -1.1214521769635534E-03
              -1.8393991358956006E-03
               1.2075901355006228E-03
               2.6498886002262242E-05
               2.1746284791318063E-03
               7.4619498608598299E-04
              -2.4200321855595520E-04
              -6.9708861500697491E-03
               2.3511611396088111E-03
              -1.5601380611019035E-03
              -3.5831308230348951E-04
               1.7461897831198201E-03
              -5.0577094175136179E-04
              -2.1397979470181806E-03
              -1.2031929837043071E-03
               1.8031152861984413E-03
               2.8205682231831352E-04
              -2.1966506491058581E-03
              -1.0166920981800331E-03
              -6.9005652198799155E-04
              -5.1537521128327201E-04
              -1.4587693861719013E-03
               1.8298350570391979E-03
               1.6827541478068030E-04
              -7.6237735808333475E-05
               1.4006064457942643E-03
               1.0410153257103248E-03
              -3.5505020360615980E-04
               1.2048465345872407E-03
              -3.3139846501944023E-05
               3.4052061242503964E-04
              -4.2427914738680248E-03
               3.4613132266581650E-03
              -2.0170903394225453E-04
               3.8011884533289859E-03
               2.3076532605161098E-03
               6.1982504151632717E-05
               3.0861547968506439E-03
              -6.7211407405050956E-04
               1.1067142979656480E-03
               1.0431164665233616E-03
               1.5195835483246759E-03
              -2.6241977850694556E-03
              -1.9603428528870087E-03
               1.6454543044779940E-03
              -7.5269929753762281E-04
              -6.3058951633127448E-04
              -5.5641684962403487E-04
              -1.5143433742358292E-03
               3.4451475799006910E-06
               2.9230940755178270E-03
              -4.1781240239865281E-03
               6.8479793938959668E-03
               9.5225260166531230E-04
              -4.9865330559394983E-03
         &END THERMOSTAT_ENERGY
         &RNG_INIT
Wiener process for Thermostat # 1        1 F T T   7.2802313159936871E-01        1252743351.0        2412593069.0        2981236150.0        1402880765.0        3246995215.0         183122677.0             12345.0             12345.0             12345.0             12345.0             12345.0             12345.0             12345.0             12345.0             12345.0             12345.0             12345.0             12345.0
Wiener process for Thermostat # 2        1 F T T   8.6418108574474417E-01        3349208637.0        2926311632.0         890722847.0        2998799774.0        3424100921.0         209482964.0        3692455944.0        1366884236.0        2968912127.0         335948734.0        4161675175.0         475798818.0        3692455944.0        1366884236.0        2968912127.0         335948734.0        4161675175.0         475798818.0
Wiener process for Thermostat # 3        1 F T T  -8.4052299264190056E-02        1693103939.0        4134009626.0        4228564408.0        2623748557.0        2134207701.0         712976840.0        1015873554.0        1310354410.0        2249465273.0         994084013.0        2912484720.0        3876682925.0        1015873554.0        1310354410.0        2249465273.0         994084013.0        2912484720.0        3876682925.0
Wiener process for Thermostat # 4        1 F T T  -1.3554402993858423E+00        2059843431.0        2929142902.0        4016886490.0        1969465530.0        1544769932.0        1541574364.0        2338701263.0        1119171942.0        2570676563.0         317077452.0        3194180850.0         618832124.0        2338701263.0        1119171942.0        2570676563.0         317077452.0        3194180850.0         618832124.0
Wiener process for Thermostat # 5        1 F T T  -2.2916195678496437E-01        3117441754.0         151623779.0        3497812322.0        1598718155.0        4109043573.0        2903158676.0        1597262096.0        3906379055.0        3312112953.0        1016013135.0        4099474108.0         275305423.0        1597262096.0        3906379055.0        3312112953.0        1016013135.0        4099474108.0         275305423.0
Wiener process for Thermostat # 6        1 F T T   1.1920741985797877E-01        3886411859.0        1893765313.0        4250537402.0        4151973755.0        3882272840.0        3521152222.0          97147054.0        3131372450.0         829345164.0        3691032523.0        3006063034.0        4259826321.0          97147054.0        3131372450.0         829345164.0        3691032523.0        3006063034.0        4259826321.0
Wiener process for Thermostat # 7        1 F T T   9.6527309454336585E-01        4167267804.0        1912309745.0        1340077654.0        1672562627.0        3303703651.0        2124005465.0         796079799.0        2105258207.0         955365076.0        2923159030.0        4116632677.0        3067683584.0         796079799.0        2105258207.0         955365076.0        2923159030.0        4116632677.0        3067683584.0
Wiener process for Thermostat # 8        1 F T T  -1.1462849436699794E+00         519087486.0        3302995348.0         990919477.0        2983712949.0        2267804129.0        3472368390.0        3281794178.0        2616230133.0        1457051261.0        2762791137.0        2480527362.0        2282316169.0        3281794178.0        2616230133.0        1457051261.0        2762791137.0        2480527362.0        2282316169.0
Wiener process for Thermostat # 9        1 F T T  -3.4048503655620405E-01           7748281.0        3560366907.0        1083343234.0        1815693573.0        2963644287.0        3134782871.0        3777646647.0        1837464056.0        4204654757.0         664239048.0        4190510072.0        2959195122.0        3777646647.0        1837464056.0        4204654757.0         664239048.0        4190510072.0        2959195122.0
Wiener process for Thermostat # 10       1 F T T   1.0389660083449490E+00         181745867.0        3196109386.0         188885293.0        1860103081.0        3704341454.0         267196152.0        4215590817.0        3862461878.0        1087200967.0        1544910132.0         936383720.0        1611370123.0        4215590817.0        3862461878.0        1087200967.0        1544910132.0         936383720.0        1611370123.0
Wiener process for Thermostat # 11       1 F T T   2.3912070508974162E-01        1124432304.0        1002517042.0        2107364625.0        2397995950.0        1714980864.0         106907239.0        1683636369.0         362165168.0         814316280.0         869382050.0         980203903.0        2062101717.0        1683636369.0         362165168.0         814316280.0         869382050.0         980203903.0        2062101717.0
Wiener process for Thermostat # 12       1 F T T   1.7462418560954908E-02        1840454935.0        2054935360.0        1163964869.0        3662518508.0        4160576092.0        3865438836.0         272317999.0         166758548.0         310112982.0         201045826.0        1680231254.0         118290799.0         272317999.0         166758548.0         310112982.0         201045826.0        1680231254.0         118290799.0
Wiener process for Thermostat # 13       1 F T T  -8.7871008736879375E-01        3397925227.0        3560637299.0        2039159723.0        3030645912.0        1968169835.0        4186661394.0        2245755202.0        1652682525.0        2865544364.0         721509566.0         209733568.0         592362218.0        2245755202.0        1652682525.0        2865544364.0         721509566.0         209733568.0         592362218.0